----------------------------------------
Begin Torque Prologue (Sat Mar 16 19:41:58 2013)
Job ID:           389664.taubm1.campuscluster.illinois.edu
Username:         davis68
Group:            npre_rizwan
Job Name:         U6H-100-opt-es
Limits:           ncpus=1,neednodes=24:ppn=12,nodes=24:ppn=12,walltime=06:00:00
Job Queue:        cse
Account:          NPRE
Nodes:            taub095 taub096 taub240 taub247 taub249 taub267 taub286 taub294 taub308 taub310 taub334 taub341 taub348 taub356 taub358 taub359 taub363 taub379 taub380 taub382 taub473 taub474 taub482 taub484
End Torque Prologue
----------------------------------------
 argument  1 = ./U6H-100-opt-es.nw



============================== echo of input deck ==============================
title "Gamma-uranium (100) slab relaxation"
echo

permanent_dir ./perm
scratch_dir   ./scratch

restart U6H-100-rel1

memory 2500 mb

nwpw
  # Real-space discretization
  simulation_cell
    ngrid 36 36 256
  end

  # Spin multiplicity---quenched to 1 in the solid state
  mult 2

  # Band, k-point sampling, and parallelism
  monkhorst-pack 4 4 1
  np_dimensions 8 12 8
  mapping 2

  # Periodicity considerations
  ewald_rcut 3.0
  ewald_ncut 8

  # Simulation parameters
  #restricted    # DFT||ODFT||RESTRICTED||UNRESTRICTED
  xc pbe96
  cutoff 90.0
  loop 10 300
  tolerances 5.0e-7 5.0e-7
end
set nwpw:minimizer      2
set nwpw:lcao_skip      .true.
set nwpw:kbpp_ray       .true.
set nwpw:cif_filename U6-pbe96.opt

#       (100) gamma-uranium surface with surface displacements: 29.7%   -15.3%  and H displacement of   0.600   Å
geometry        center  noautosym       noautoz print
        system  crystal
        lat_a   3.44
        lat_b   3.44
        lat_c   25.32
        alpha   90.0d0
        beta    90.0d0
        gamma   90.0d0
        end
        U1      0.50000 0.50000 0.69401
        U2      0.00000 0.00000 0.64625
        U3      0.50000 0.50000 0.56793
        U4      0.00000 0.00000 0.50000
        U5      0.50000 0.50000 0.42168
        U6      0.00000 0.00000 0.37392
        H1      0.50000 0.50000 0.71771
end
#task band energy

nwpw
  simulation_cell
    ngrid 64 64 512
  end
  #tolerances 1.0e-7 1.0e-7
end

#       (100) gamma-uranium surface with surface displacements:	29.7%	-15.3%	and H displacement of	1.630	Å
geometry	center	noautosym	noautoz	print
	system	crystal
	lat_a	3.44
	lat_b	3.44
	lat_c	25.32
	alpha	90.0d0
	beta	90.0d0
	gamma	90.0d0
	end
	U1	0.50000	0.50000	0.69401
	U2	0.00000	0.00000	0.64625
	U3	0.50000	0.50000	0.56793
	U4	0.00000	0.00000	0.50000
	U5	0.50000	0.50000	0.42168
	U6	0.00000	0.00000	0.37392
	H1	0.25000	0.25000	0.75839
end
task band energy

constraints
  clear
end

# Get the electronic characteristics of this geometry.
nwpw
  dos
  efield
  mulliken
  #esp
  #efieldgrad
  #electrondensity
end
task pspw energy ignore
set nwpw:dos:actlist 7
task pspw energy ignore

# A.M.D.G.
================================================================================


                                         
                                         


             Northwest Computational Chemistry Package (NWChem) 6.1.1
             --------------------------------------------------------


                    Environmental Molecular Sciences Laboratory
                       Pacific Northwest National Laboratory
                                Richland, WA 99352

                              Copyright (c) 1994-2012
                       Pacific Northwest National Laboratory
                            Battelle Memorial Institute

             NWChem is an open-source computational chemistry package
                        distributed under the terms of the
                      Educational Community License (ECL) 2.0
             A copy of the license is included with this distribution
                              in the LICENSE.TXT file

                                  ACKNOWLEDGMENT
                                  --------------

            This software and its documentation were developed at the
            EMSL at Pacific Northwest National Laboratory, a multiprogram
            national laboratory, operated for the U.S. Department of Energy
            by Battelle under Contract Number DE-AC05-76RL01830. Support
            for this work was provided by the Department of Energy Office
            of Biological and Environmental Research, Office of Basic
            Energy Sciences, and the Office of Advanced Scientific Computing.


           Job information
           ---------------

    hostname        = taub484
    program         = /home/davis68/bin/nwchem-dev
    date            = Sat Mar 16 19:42:45 2013

    compiled        = Wed_Oct_03_09:41:00_2012
    source          = /home/davis68/nwchem/nwchem-src-2012-Aug-27/
    nwchem branch   = Development
    nwchem revision = 22805
    ga revision     = 10079
    input           = ./U6H-100-opt-es.nw
    prefix          = U6H-100-rel1.
    data base       = ./perm/U6H-100-rel1.db
    status          = restart
    nproc           =      288
    time left       =     -1s



           Memory information
           ------------------

    heap     =   81920001 doubles =    625.0 Mbytes
    stack    =   81920001 doubles =    625.0 Mbytes
    global   =  163840000 doubles =   1250.0 Mbytes (distinct from heap & stack)
    total    =  327680002 doubles =   2500.0 Mbytes
    verify   = yes
    hardfail = no 


           Directory information
           ---------------------

  0 permanent = ./perm
  0 scratch   = ./scratch


           Previous task information
           -------------------------

    Theory    = band                            
    Operation = energy                        
    Status    = fail                          
    Qmmm      = F
    Ignore    = F


           Geometries in the database
           --------------------------

       Name                              Natoms  Last Modified
       --------------------------------  ------  ------------------------
    1  geometry                               7  Sun Mar 10 07:44:47 2013  
    2  pspwgeometry                           7  Sun Mar 10 07:48:20 2013  

  The geometry named "geometry" is the default for restart



           Basis sets in the database
           --------------------------

  There are no basis sets in the database



                                NWChem Input Module
                                -------------------


                        Gamma-uranium (100) slab relaxation
                        -----------------------------------

  !!!!!!!!!  geom_3d NEEDS TESTING !!!!!!!!!! 


                             Geometry "geometry" -> ""
                             -------------------------

 Output coordinates in angstroms (scale by  1.889725989 to convert to a.u.)

  No.       Tag          Charge          X              Y              Z
 ---- ---------------- ---------- -------------- -------------- --------------
    1 U1                  92.0000     1.72000000     1.72000000    17.57233320
    2 U2                  92.0000     0.00000000     0.00000000    16.36305000
    3 U3                  92.0000     1.72000000     1.72000000    14.37998760
    4 U4                  92.0000     0.00000000     0.00000000    12.66000000
    5 U5                  92.0000     1.72000000     1.72000000    10.67693760
    6 U6                  92.0000     0.00000000     0.00000000     9.46765440
    7 H1                   1.0000     1.72000000     1.72000000    18.17241720

      Lattice Parameters 
      ------------------ 

      lattice vectors in angstroms (scale by  1.889725989 to convert to a.u.)

      a1=<   3.440   0.000   0.000 >
      a2=<   0.000   3.440   0.000 >
      a3=<   0.000   0.000  25.320 >
      a=       3.440 b=      3.440 c=      25.320
      alpha=  90.000 beta=  90.000 gamma=  90.000
      omega=   299.6

      reciprocal lattice vectors in a.u.

      b1=<   0.967   0.000  -0.000 >
      b2=<  -0.000   0.967  -0.000 >
      b3=<   0.000   0.000   0.131 >

      Atomic Mass 
      ----------- 

      U1               238.050800
      U2               238.050800
      U3               238.050800
      U4               238.050800
      U5               238.050800
      U6               238.050800
      H1                 1.007825


 ==============================================================================
                                internuclear distances
 ------------------------------------------------------------------------------
       center one      |      center two      | atomic units |  angstroms
 ------------------------------------------------------------------------------
    2 U2               |   1 U1               |     5.13337  |     2.71646
    3 U3               |   1 U1               |     6.03266  |     3.19235
    3 U3               |   2 U2               |     5.93065  |     3.13837
    4 U4               |   2 U2               |     6.99775  |     3.70305
    4 U4               |   3 U3               |     5.62972  |     2.97912
    5 U5               |   3 U3               |     6.99775  |     3.70305
    5 U5               |   4 U4               |     5.93065  |     3.13837
    6 U6               |   4 U4               |     6.03266  |     3.19235
    6 U6               |   5 U5               |     5.13337  |     2.71646
    7 H1               |   1 U1               |     1.13399  |     0.60008
 ------------------------------------------------------------------------------
                         number of included internuclear distances:         10
 ==============================================================================



 ==============================================================================
                                 internuclear angles
 ------------------------------------------------------------------------------
        center 1       |       center 2       |       center 3       |  degrees
 ------------------------------------------------------------------------------
    1 U1               |   2 U2               |   3 U3               |    65.62
    2 U2               |   1 U1               |   7 H1               |   116.43
    3 U3               |   1 U1               |   7 H1               |   180.00
    1 U1               |   2 U2               |   3 U3               |    65.62
    1 U1               |   2 U2               |   4 U4               |   116.43
    2 U2               |   3 U3               |   4 U4               |    74.45
    3 U3               |   2 U2               |   1 U1               |    65.62
    1 U1               |   3 U3               |   4 U4               |   125.26
    1 U1               |   3 U3               |   5 U5               |   180.00
    2 U2               |   3 U3               |   4 U4               |    74.45
    2 U2               |   3 U3               |   5 U5               |   129.19
    3 U3               |   4 U4               |   5 U5               |    74.45
    4 U4               |   3 U3               |   2 U2               |    74.45
    2 U2               |   4 U4               |   5 U5               |   129.19
    2 U2               |   4 U4               |   6 U6               |   180.00
    3 U3               |   4 U4               |   5 U5               |    74.45
    3 U3               |   4 U4               |   6 U6               |   125.26
    4 U4               |   5 U5               |   6 U6               |    65.62
    5 U5               |   4 U4               |   3 U3               |    74.45
    3 U3               |   5 U5               |   6 U6               |   116.43
    4 U4               |   5 U5               |   6 U6               |    65.62
    6 U6               |   5 U5               |   4 U4               |    65.62
 ------------------------------------------------------------------------------
                            number of included internuclear angles:         22
 ==============================================================================




  !!!!!!!!!  geom_3d NEEDS TESTING !!!!!!!!!! 


                         Geometry "geometry" -> "        "
                         ---------------------------------

 Output coordinates in angstroms (scale by  1.889725989 to convert to a.u.)

  No.       Tag          Charge          X              Y              Z
 ---- ---------------- ---------- -------------- -------------- --------------
    1 U1                  92.0000     1.72000000     1.72000000    17.57233320
    2 U2                  92.0000     0.00000000     0.00000000    16.36305000
    3 U3                  92.0000     1.72000000     1.72000000    14.37998760
    4 U4                  92.0000     0.00000000     0.00000000    12.66000000
    5 U5                  92.0000     1.72000000     1.72000000    10.67693760
    6 U6                  92.0000     0.00000000     0.00000000     9.46765440
    7 H1                   1.0000     0.86000000     0.86000000    19.20243480

      Lattice Parameters 
      ------------------ 

      lattice vectors in angstroms (scale by  1.889725989 to convert to a.u.)

      a1=<   3.440   0.000   0.000 >
      a2=<   0.000   3.440   0.000 >
      a3=<   0.000   0.000  25.320 >
      a=       3.440 b=      3.440 c=      25.320
      alpha=  90.000 beta=  90.000 gamma=  90.000
      omega=   299.6

      reciprocal lattice vectors in a.u.

      b1=<   0.967   0.000  -0.000 >
      b2=<  -0.000   0.967  -0.000 >
      b3=<   0.000   0.000   0.131 >

      Atomic Mass 
      ----------- 

      U1               238.050800
      U2               238.050800
      U3               238.050800
      U4               238.050800
      U5               238.050800
      U6               238.050800
      H1                 1.007825


 ==============================================================================
                                internuclear distances
 ------------------------------------------------------------------------------
       center one      |      center two      | atomic units |  angstroms
 ------------------------------------------------------------------------------
    2 U2               |   1 U1               |     5.13337  |     2.71646
    3 U3               |   1 U1               |     6.03266  |     3.19235
    3 U3               |   2 U2               |     5.93065  |     3.13837
    4 U4               |   2 U2               |     6.99775  |     3.70305
    4 U4               |   3 U3               |     5.62972  |     2.97912
    5 U5               |   3 U3               |     6.99775  |     3.70305
    5 U5               |   4 U4               |     5.93065  |     3.13837
    6 U6               |   4 U4               |     6.03266  |     3.19235
    6 U6               |   5 U5               |     5.13337  |     2.71646
    7 H1               |   1 U1               |     3.84337  |     2.03382
 ------------------------------------------------------------------------------
                         number of included internuclear distances:         10
 ==============================================================================



 ==============================================================================
                                 internuclear angles
 ------------------------------------------------------------------------------
        center 1       |       center 2       |       center 3       |  degrees
 ------------------------------------------------------------------------------
    1 U1               |   2 U2               |   3 U3               |    65.62
    2 U2               |   1 U1               |   7 H1               |    79.71
    3 U3               |   1 U1               |   7 H1               |   143.27
    1 U1               |   2 U2               |   3 U3               |    65.62
    1 U1               |   2 U2               |   4 U4               |   116.43
    2 U2               |   3 U3               |   4 U4               |    74.45
    3 U3               |   2 U2               |   1 U1               |    65.62
    1 U1               |   3 U3               |   4 U4               |   125.26
    1 U1               |   3 U3               |   5 U5               |   180.00
    2 U2               |   3 U3               |   4 U4               |    74.45
    2 U2               |   3 U3               |   5 U5               |   129.19
    3 U3               |   4 U4               |   5 U5               |    74.45
    4 U4               |   3 U3               |   2 U2               |    74.45
    2 U2               |   4 U4               |   5 U5               |   129.19
    2 U2               |   4 U4               |   6 U6               |   180.00
    3 U3               |   4 U4               |   5 U5               |    74.45
    3 U3               |   4 U4               |   6 U6               |   125.26
    4 U4               |   5 U5               |   6 U6               |    65.62
    5 U5               |   4 U4               |   3 U3               |    74.45
    3 U3               |   5 U5               |   6 U6               |   116.43
    4 U4               |   5 U5               |   6 U6               |    65.62
    6 U6               |   5 U5               |   4 U4               |    65.62
 ------------------------------------------------------------------------------
                            number of included internuclear angles:         22
 ==============================================================================



          **********************************************************
          *                                                        *
          *                   NWPW BAND Calculation                *
          *                                                        *
          *  [(bundled Grassman/Stiefel manifold implementation)]  *
          *                                                        *
          *         [ NorthWest Chemistry implementation ]         *
          *                                                        *
          *                version #1.10   01/31/03                *
          *                                                        *
          *  A pseudopotential plane-wave band structure program   *
          *  with Brillouin zone sampling for optimizing crystals, *
          *  slabs, and polymers.  Developed by Eric J. Bylaska    *
          *  , Edoardo Apra, and Patrick Nichols.                  *
          *                                                        *
          **********************************************************
     >>>  JOB STARTED       AT Sat Mar 16 19:42:46 2013  <<<
          ================ input data ========================

 input psi filename:./perm/U6H-100-rel1.movecs

 number of processors used:             288
 processor grid           :  36 x   1 x   8
 parallel mapping         :     2d  hilbert

 options:
      boundary conditions  = periodic    (version3)
      electron spin        = unrestricted
      exchange-correlation = PBE96 (White and Bird) parameterization

 elements involved in the cluster:
      1: U     core charge:14.0  lmax=3
             comment    : Parameterized (J.Chem. Phys. vol 128, 124507 (2008)) Troullier-Martins psp
             pseudpotential type            :   0
             highest angular component      :   3
             local potential used           :   0
             number of non-local projections:  15
             cutoff =   1.421   1.602   2.400   1.250
      2: H     core charge: 1.0  lmax=1
             comment    : Parameterized (Chem.Phys.Lett., vol 322, page 447) Hamman psp
             pseudpotential type            :   0
             highest angular component      :   1
             local potential used           :   1
             number of non-local projections:   1
             cutoff =   0.800   0.800

 total charge:   0.000

 atomic composition:
     U   :  6     H   :  1

 number of electrons: spin up=   43.00  spin down=   42.00 (fourier space)
 number of orbitals:  spin up=      43  spin down=      42 (fourier space)

 supercell:
      lattice:    a1=<   6.501   0.000   0.000 >
                  a2=<   0.000   6.501   0.000 >
                  a3=<   0.000   0.000  47.848 >
      reciprocal: b1=<   0.967   0.000  -0.000 >
                  b2=<  -0.000   0.967  -0.000 >
                  b3=<   0.000   0.000   0.131 >

      lattice:    a=   6.501    b=   6.501     c=  47.848
              alpha=  90.000 beta=  90.000 gamma=  90.000
      volume :     2022.0
      ewald summation: cut radius=    3.00  and  8
                        madelung=-4.59469223

 brillouin zone:
      number of zone points:     8
      weight=   0.125  ks=<   0.375   0.375   0.000 >, k=<   0.362   0.362  -0.000>
      weight=   0.125  ks=<   0.125   0.375   0.000 >, k=<   0.121   0.362  -0.000>
      weight=   0.125  ks=<  -0.125   0.375   0.000 >, k=<  -0.121   0.362  -0.000>
      weight=   0.125  ks=<   0.375  -0.375   0.000 >, k=<   0.362  -0.362  -0.000>
      weight=   0.125  ks=<   0.375   0.125   0.000 >, k=<   0.362   0.121  -0.000>
      weight=   0.125  ks=<   0.125   0.125   0.000 >, k=<   0.121   0.121  -0.000>
      weight=   0.125  ks=<   0.125  -0.125   0.000 >, k=<   0.121  -0.121  -0.000>
      weight=   0.125  ks=<   0.375  -0.125   0.000 >, k=<   0.362  -0.121  -0.000>

 computational grids:
      density     cutoff=180.000  fft=  64x  64x 512(   233273 waves     6479 per task)
      wavefnc   1 cutoff= 90.000  fft=  64x  64x 512(    82592 waves     2294 per task)
      wavefnc   2 cutoff= 90.000  fft=  64x  64x 512(    82409 waves     2289 per task)
      wavefnc   3 cutoff= 90.000  fft=  64x  64x 512(    82409 waves     2289 per task)
      wavefnc   4 cutoff= 90.000  fft=  64x  64x 512(    82592 waves     2294 per task)
      wavefnc   5 cutoff= 90.000  fft=  64x  64x 512(    82409 waves     2289 per task)
      wavefnc   6 cutoff= 90.000  fft=  64x  64x 512(    82433 waves     2289 per task)
      wavefnc   7 cutoff= 90.000  fft=  64x  64x 512(    82433 waves     2289 per task)
      wavefnc   8 cutoff= 90.000  fft=  64x  64x 512(    82409 waves     2289 per task)

 technical parameters:
      time step=      5.80     ficticious mass=  400000.0
      tolerance=.500E-06 (energy)   0.500E-06 (density)
      maximum iterations =      3000 (   10 inner    300 outer )



= energy calculation =


          ======== bundled Grassmann lmbfgs iteration ========
     >>>  ITERATION STARTED AT Sat Mar 16 19:47:06 2013  <<<
    iter.           Energy         DeltaE       DeltaRho 
    ------------------------------------------------------
      10   -0.3076598187E+03   -0.14708E+00    0.95154E+00
     -  10 steepest descent iterations performed
      20   -0.3082673566E+03   -0.20609E-01    0.56773E-01
     -  10 steepest descent iterations performed
      30   -0.3083726326E+03   -0.52475E-02    0.29382E-02
      40   -0.3084175064E+03   -0.21691E-02    0.85759E-02
      50   -0.3084375423E+03   -0.21796E-02    0.26273E-02
     -  10 steepest descent iterations performed
      60   -0.3084526168E+03   -0.10689E-02    0.37090E-03
      70   -0.3084666718E+03   -0.10965E-02    0.16312E-02
     -  10 steepest descent iterations performed
      80   -0.3084768623E+03   -0.78688E-03    0.75717E-03
      90   -0.3084818997E+03   -0.43883E-03    0.49219E-03
     100   -0.3084887051E+03   -0.69521E-03    0.10918E-02
     -  10 steepest descent iterations performed
     110   -0.3084936623E+03   -0.20639E-03    0.11930E-03
     120   -0.3084961590E+03   -0.20360E-03    0.17300E-03
     130   -0.3084980615E+03   -0.20573E-03    0.21663E-03
     -  10 steepest descent iterations performed
     140   -0.3085004343E+03   -0.16740E-03    0.12010E-03
     150   -0.3085017723E+03   -0.14202E-03    0.13407E-03
     160   -0.3085034440E+03   -0.15628E-03    0.36638E-03
     -  10 steepest descent iterations performed
     170   -0.3085052752E+03   -0.79830E-04    0.48409E-04
     180   -0.3085062563E+03   -0.82753E-04    0.10864E-03
     -  10 steepest descent iterations performed
     190   -0.3085073093E+03   -0.10585E-03    0.10540E-03
     -  10 steepest descent iterations performed
     200   -0.3085080431E+03   -0.59721E-04    0.45083E-04
     210   -0.3085093169E+03   -0.10710E-03    0.52967E-03
     -  10 steepest descent iterations performed
     220   -0.3085104222E+03   -0.63852E-04    0.30532E-04
     230   -0.3085107545E+03   -0.28094E-04    0.23168E-04
     240   -0.3085112989E+03   -0.88833E-04    0.14089E-03
     -  10 steepest descent iterations performed
     250   -0.3085119106E+03   -0.23771E-04    0.14749E-04
     260   -0.3085122109E+03   -0.38750E-04    0.34335E-04
     -  10 steepest descent iterations performed
     270   -0.3085125873E+03   -0.37047E-04    0.24794E-04
     280   -0.3085128651E+03   -0.26736E-04    0.44342E-04
     290   -0.3085140407E+03   -0.79207E-04    0.11026E-02
     -  10 steepest descent iterations performed
     300   -0.3085147093E+03   -0.11570E-04    0.48972E-05
     310   -0.3085148486E+03   -0.11644E-04    0.71495E-05
     -  10 steepest descent iterations performed
     320   -0.3085149619E+03   -0.13232E-04    0.86166E-05
     -  10 steepest descent iterations performed
     330   -0.3085150580E+03   -0.46471E-05    0.37083E-05
     340   -0.3085153233E+03   -0.42685E-04    0.14572E-03
     -  10 steepest descent iterations performed
     350   -0.3085155582E+03   -0.45162E-05    0.19810E-05
     360   -0.3085156006E+03   -0.53196E-05    0.28780E-05
     -  10 steepest descent iterations performed
     370   -0.3085156662E+03   -0.54067E-05    0.43258E-05
     -  10 steepest descent iterations performed
     380   -0.3085157264E+03   -0.34033E-05    0.36076E-05
     390   -0.3085159115E+03   -0.35585E-04    0.13440E-03
     -  10 steepest descent iterations performed
     400   -0.3085160860E+03   -0.35959E-05    0.13599E-05
     410   -0.3085161108E+03   -0.22458E-05    0.19223E-05
     420   -0.3085165233E+03   -0.35101E-04    0.10660E-02
     -  10 steepest descent iterations performed
     430   -0.3085167509E+03   -0.50052E-05    0.17458E-05
     440   -0.3085167724E+03   -0.16188E-05    0.73909E-06
     450   -0.3085167983E+03   -0.33792E-05    0.56303E-05
     -  10 steepest descent iterations performed
     460   -0.3085168294E+03   -0.17418E-05    0.19290E-05
     470   -0.3085168547E+03   -0.23259E-05    0.75448E-05
     -  10 steepest descent iterations performed
     480   -0.3085168890E+03   -0.24490E-05    0.19185E-05
     -  10 steepest descent iterations performed
     490   -0.3085169119E+03   -0.20780E-05    0.38634E-05
     500   -0.3085170490E+03   -0.11337E-04    0.32746E-03
     -  10 steepest descent iterations performed
     510   -0.3085171895E+03   -0.27422E-05    0.11240E-05
     520   -0.3085172050E+03   -0.15739E-05    0.80930E-06
     530   -0.3085172333E+03   -0.56748E-05    0.10719E-04
     -  10 steepest descent iterations performed
     540   -0.3085172691E+03   -0.12849E-05    0.13836E-05
     550   -0.3085172984E+03   -0.36233E-05    0.11558E-04
     -  10 steepest descent iterations performed
     560   -0.3085173354E+03   -0.25742E-05    0.18912E-05
     570   -0.3085173555E+03   -0.32245E-05    0.42871E-05
     -  10 steepest descent iterations performed
     580   -0.3085173890E+03   -0.23020E-05    0.29746E-05
     590   -0.3085174123E+03   -0.25199E-05    0.75498E-05
     -  10 steepest descent iterations performed
     600   -0.3085174496E+03   -0.26951E-05    0.19859E-05
     -  10 steepest descent iterations performed
     610   -0.3085174778E+03   -0.37426E-05    0.69081E-05
     -  10 steepest descent iterations performed
     620   -0.3085175053E+03   -0.17980E-05    0.14369E-05
     630   -0.3085175889E+03   -0.90329E-05    0.11322E-03
     -  10 steepest descent iterations performed
     640   -0.3085176796E+03   -0.17380E-05    0.13418E-05
     650   -0.3085176936E+03   -0.17417E-05    0.17728E-05
     -  10 steepest descent iterations performed
     660   -0.3085177198E+03   -0.34499E-05    0.39484E-05
     -  10 steepest descent iterations performed
     670   -0.3085177442E+03   -0.19138E-05    0.22147E-05
     680   -0.3085178430E+03   -0.11483E-04    0.15986E-03
     -  10 steepest descent iterations performed
     690   -0.3085179475E+03   -0.26908E-05    0.15116E-05
     700   -0.3085179611E+03   -0.11087E-05    0.85078E-06
     710   -0.3085180579E+03   -0.22795E-04    0.16121E-03
     -  10 steepest descent iterations performed
     720   -0.3085181560E+03   -0.12724E-05    0.11231E-05
     730   -0.3085181778E+03   -0.22565E-05    0.33324E-05
     -  10 steepest descent iterations performed
     740   -0.3085182058E+03   -0.28335E-05    0.37166E-05
     -  10 steepest descent iterations performed
     750   -0.3085182305E+03   -0.19175E-05    0.25969E-05
     760   -0.3085182873E+03   -0.68454E-05    0.53361E-04
     -  10 steepest descent iterations performed
     770   -0.3085183515E+03   -0.29279E-05    0.11131E-05
     780   -0.3085183657E+03   -0.13357E-05    0.13936E-05
     790   -0.3085184399E+03   -0.95514E-05    0.97904E-04
     -  10 steepest descent iterations performed
     800   -0.3085185168E+03   -0.10511E-05    0.89755E-06
     810   -0.3085185355E+03   -0.19777E-05    0.30111E-05
     -  10 steepest descent iterations performed
     820   -0.3085185610E+03   -0.35419E-05    0.36843E-05
     -  10 steepest descent iterations performed
     830   -0.3085185832E+03   -0.17059E-05    0.24946E-05
     840   -0.3085186316E+03   -0.36133E-05    0.43888E-04
     -  10 steepest descent iterations performed
     850   -0.3085186861E+03   -0.20208E-05    0.11952E-05
     860   -0.3085186971E+03   -0.13906E-05    0.11223E-05
     870   -0.3085187742E+03   -0.14206E-04    0.13441E-03
     -  10 steepest descent iterations performed