----------------------------------------
Begin Torque Prologue (Sun Mar 10 07:54:40 2013)
Job ID:           384924.taubm1.campuscluster.illinois.edu
Username:         davis68
Group:            npre_rizwan
Job Name:         U6H-211-top
Limits:           ncpus=1,neednodes=24:ppn=12,nodes=24:ppn=12,walltime=04:00:00
Job Queue:        cse
Account:          NPRE
Nodes:            taub362 taub363 taub364 taub377 taub380 taub385 taub387 taub406 taub409 taub410 taub411 taub431 taub440 taub441 taub442 taub454 taub456 taub485 taub487 taub488 taub492 taub496 taub497 taub512
End Torque Prologue
----------------------------------------
 argument  1 = ./U6H-211-top.nw



============================== echo of input deck ==============================
title "Gamma-uranium (211) adsorption"
echo

permanent_dir ./perm
scratch_dir   ./scratch

start U6H-211-top

memory 2500 mb

nwpw
  # Real-space discretization
  simulation_cell
    ngrid 36 48 320
  end

  # Spin multiplicity---quenched to 1 in the solid state
  mult 2

  # Band, k-point sampling, and parallelism
  monkhorst-pack 4 4 1
  np_dimensions 10 10 12
  mapping 2

  # Periodicity considerations
  ewald_rcut 3.0
  ewald_ncut 8

  # Simulation parameters
  #restricted    # DFT||ODFT||RESTRICTED||UNRESTRICTED
  xc pbe96
  cutoff 90.0
  loop 10 300
end
set nwpw:minimizer      2
set nwpw:lcao_skip      .true.
set nwpw:kbpp_ray       .true.
set nwpw:cif_filename U6-pbe96.opt

#       (211) gamma-uranium surface with surface displacements: 43.40%  -18.50% and H displacement of   0.250   Å
geometry        center  noautosym       noautoz print
        system  crystal
        lat_a   2.97913
        lat_b   4.86259
        lat_c   23.42762
        alpha   90.0d0
        beta    90.0d0
        gamma   90.0d0
        end
        U1      0.66667 0.50000 0.66494
        U2      0.33333 0.00000 0.63100
        U3      0.00000 0.50000 0.55996
        U4      0.66667 0.00000 0.50000
        U5      0.33333 0.50000 0.42895
        U6      0.00000 0.00000 0.39502
        H1      0.66667 0.50000 0.67561
end
#task band energy

nwpw
  simulation_cell
    ngrid 60 96 480
  end
end

#       (211) gamma-uranium surface with surface displacements:	43.40%	-18.50%	and H displacement of	2.250	Å
geometry	center	noautosym	noautoz	print
	system	crystal
	lat_a	2.97913
	lat_b	4.86259
	lat_c	23.42762
	alpha	90.0d0
	beta	90.0d0
	gamma	90.0d0
	end
	U1	0.66667	0.50000	0.66494
	U2	0.33333	0.00000	0.63100
	U3	0.00000	0.50000	0.55996
	U4	0.66667	0.00000	0.50000
	U5	0.33333	0.50000	0.42895
	U6	0.00000	0.00000	0.39502
	H1	0.66667	0.50000	0.76098
end
task band energy

#       (211) gamma-uranium surface with surface displacements:	43.40%	-18.50%	and H displacement of	2.500	Å
geometry	center	noautosym	noautoz	print
	system	crystal
	lat_a	2.97913
	lat_b	4.86259
	lat_c	23.42762
	alpha	90.0d0
	beta	90.0d0
	gamma	90.0d0
	end
	U1	0.66667	0.50000	0.66494
	U2	0.33333	0.00000	0.63100
	U3	0.00000	0.50000	0.55996
	U4	0.66667	0.00000	0.50000
	U5	0.33333	0.50000	0.42895
	U6	0.00000	0.00000	0.39502
	H1	0.66667	0.50000	0.77165
end
task band energy

#       (211) gamma-uranium surface with surface displacements:	43.40%	-18.50%	and H displacement of	1.000	Å
geometry	center	noautosym	noautoz	print
	system	crystal
	lat_a	2.97913
	lat_b	4.86259
	lat_c	23.42762
	alpha	90.0d0
	beta	90.0d0
	gamma	90.0d0
	end
	U1	0.66667	0.50000	0.66494
	U2	0.33333	0.00000	0.63100
	U3	0.00000	0.50000	0.55996
	U4	0.66667	0.00000	0.50000
	U5	0.33333	0.50000	0.42895
	U6	0.00000	0.00000	0.39502
	H1	0.83333	0.00000	0.70762
end
task band energy

#       (211) gamma-uranium surface with surface displacements:	43.40%	-18.50%	and H displacement of	1.250	Å
geometry	center	noautosym	noautoz	print
	system	crystal
	lat_a	2.97913
	lat_b	4.86259
	lat_c	23.42762
	alpha	90.0d0
	beta	90.0d0
	gamma	90.0d0
	end
	U1	0.66667	0.50000	0.66494
	U2	0.33333	0.00000	0.63100
	U3	0.00000	0.50000	0.55996
	U4	0.66667	0.00000	0.50000
	U5	0.33333	0.50000	0.42895
	U6	0.00000	0.00000	0.39502
	H1	0.83333	0.00000	0.71829
end
task band energy

#       (211) gamma-uranium surface with surface displacements:	43.40%	-18.50%	and H displacement of	1.500	Å
geometry	center	noautosym	noautoz	print
	system	crystal
	lat_a	2.97913
	lat_b	4.86259
	lat_c	23.42762
	alpha	90.0d0
	beta	90.0d0
	gamma	90.0d0
	end
	U1	0.66667	0.50000	0.66494
	U2	0.33333	0.00000	0.63100
	U3	0.00000	0.50000	0.55996
	U4	0.66667	0.00000	0.50000
	U5	0.33333	0.50000	0.42895
	U6	0.00000	0.00000	0.39502
	H1	0.83333	0.00000	0.72896
end
task band energy

# A.M.D.G.
================================================================================


                                         
                                         


             Northwest Computational Chemistry Package (NWChem) 6.1.1
             --------------------------------------------------------


                    Environmental Molecular Sciences Laboratory
                       Pacific Northwest National Laboratory
                                Richland, WA 99352

                              Copyright (c) 1994-2012
                       Pacific Northwest National Laboratory
                            Battelle Memorial Institute

             NWChem is an open-source computational chemistry package
                        distributed under the terms of the
                      Educational Community License (ECL) 2.0
             A copy of the license is included with this distribution
                              in the LICENSE.TXT file

                                  ACKNOWLEDGMENT
                                  --------------

            This software and its documentation were developed at the
            EMSL at Pacific Northwest National Laboratory, a multiprogram
            national laboratory, operated for the U.S. Department of Energy
            by Battelle under Contract Number DE-AC05-76RL01830. Support
            for this work was provided by the Department of Energy Office
            of Biological and Environmental Research, Office of Basic
            Energy Sciences, and the Office of Advanced Scientific Computing.


           Job information
           ---------------

    hostname        = taub512
    program         = /home/davis68/bin/nwchem-dev
    date            = Sun Mar 10 07:54:44 2013

    compiled        = Wed_Oct_03_09:41:00_2012
    source          = /home/davis68/nwchem/nwchem-src-2012-Aug-27/
    nwchem branch   = Development
    nwchem revision = 22805
    ga revision     = 10079
    input           = ./U6H-211-top.nw
    prefix          = U6H-211-top.
    data base       = ./perm/U6H-211-top.db
    status          = startup
    nproc           =      288
    time left       =     -1s



           Memory information
           ------------------

    heap     =   81920001 doubles =    625.0 Mbytes
    stack    =   81920001 doubles =    625.0 Mbytes
    global   =  163840000 doubles =   1250.0 Mbytes (distinct from heap & stack)
    total    =  327680002 doubles =   2500.0 Mbytes
    verify   = yes
    hardfail = no 


           Directory information
           ---------------------

  0 permanent = ./perm
  0 scratch   = ./scratch




                                NWChem Input Module
                                -------------------


                          Gamma-uranium (211) adsorption
                          ------------------------------

  !!!!!!!!!  geom_3d NEEDS TESTING !!!!!!!!!! 


                             Geometry "geometry" -> ""
                             -------------------------

 Output coordinates in angstroms (scale by  1.889725989 to convert to a.u.)

  No.       Tag          Charge          X              Y              Z
 ---- ---------------- ---------- -------------- -------------- --------------
    1 U1                  92.0000     1.98609660     2.43129500    15.57796164
    2 U2                  92.0000     0.99303340     0.00000000    14.78282822
    3 U3                  92.0000     0.00000000     2.43129500    13.11853010
    4 U4                  92.0000     1.98609660     0.00000000    11.71381000
    5 U5                  92.0000     0.99303340     2.43129500    10.04927760
    6 U6                  92.0000     0.00000000     0.00000000     9.25437845
    7 H1                   1.0000     1.98609660     2.43129500    15.82793435

      Lattice Parameters 
      ------------------ 

      lattice vectors in angstroms (scale by  1.889725989 to convert to a.u.)

      a1=<   2.979   0.000   0.000 >
      a2=<   0.000   4.863   0.000 >
      a3=<   0.000   0.000  23.428 >
      a=       2.979 b=      4.863 c=      23.428
      alpha=  90.000 beta=  90.000 gamma=  90.000
      omega=   339.4

      reciprocal lattice vectors in a.u.

      b1=<   1.116   0.000  -0.000 >
      b2=<  -0.000   0.684  -0.000 >
      b3=<   0.000   0.000   0.142 >

      Atomic Mass 
      ----------- 

      U1               238.050800
      U2               238.050800
      U3               238.050800
      U4               238.050800
      U5               238.050800
      U6               238.050800
      H1                 1.007825


 ==============================================================================
                                internuclear distances
 ------------------------------------------------------------------------------
       center one      |      center two      | atomic units |  angstroms
 ------------------------------------------------------------------------------
    2 U2               |   1 U1               |     5.18543  |     2.74401
    3 U3               |   1 U1               |     5.97386  |     3.16123
    3 U3               |   2 U2               |     5.87556  |     3.10921
    4 U4               |   2 U2               |     6.09566  |     3.22569
    4 U4               |   3 U3               |     6.49940  |     3.43933
    5 U5               |   3 U3               |     6.09607  |     3.22590
    5 U5               |   4 U4               |     5.87581  |     3.10935
    6 U6               |   4 U4               |     5.97386  |     3.16123
    6 U6               |   5 U5               |     5.18528  |     2.74393
    7 H1               |   1 U1               |     0.47238  |     0.24997
 ------------------------------------------------------------------------------
                         number of included internuclear distances:         10
 ==============================================================================



 ==============================================================================
                                 internuclear angles
 ------------------------------------------------------------------------------
        center 1       |       center 2       |       center 3       |  degrees
 ------------------------------------------------------------------------------
    1 U1               |   2 U2               |   3 U3               |    65.03
    2 U2               |   1 U1               |   7 H1               |   106.84
    3 U3               |   1 U1               |   7 H1               |   141.08
    1 U1               |   2 U2               |   3 U3               |    65.03
    1 U1               |   2 U2               |   4 U4               |    99.46
    3 U3               |   2 U2               |   4 U4               |    65.74
    3 U3               |   2 U2               |   1 U1               |    65.03
    1 U1               |   3 U3               |   4 U4               |    87.42
    1 U1               |   3 U3               |   5 U5               |   123.15
    3 U3               |   2 U2               |   4 U4               |    65.74
    2 U2               |   3 U3               |   5 U5               |   114.27
    3 U3               |   5 U5               |   4 U4               |    65.73
    4 U4               |   2 U2               |   3 U3               |    65.74
    2 U2               |   4 U4               |   5 U5               |   114.27
    2 U2               |   4 U4               |   6 U6               |   123.15
    4 U4               |   5 U5               |   3 U3               |    65.73
    3 U3               |   4 U4               |   6 U6               |    87.42
    4 U4               |   5 U5               |   6 U6               |    65.03
    3 U3               |   5 U5               |   4 U4               |    65.73
    3 U3               |   5 U5               |   6 U6               |    99.45
    4 U4               |   5 U5               |   6 U6               |    65.03
    6 U6               |   5 U5               |   4 U4               |    65.03
 ------------------------------------------------------------------------------
                            number of included internuclear angles:         22
 ==============================================================================




  !!!!!!!!!  geom_3d NEEDS TESTING !!!!!!!!!! 


                         Geometry "geometry" -> "        "
                         ---------------------------------

 Output coordinates in angstroms (scale by  1.889725989 to convert to a.u.)

  No.       Tag          Charge          X              Y              Z
 ---- ---------------- ---------- -------------- -------------- --------------
    1 U1                  92.0000     1.98609660     2.43129500    15.57796164
    2 U2                  92.0000     0.99303340     0.00000000    14.78282822
    3 U3                  92.0000     0.00000000     2.43129500    13.11853010
    4 U4                  92.0000     1.98609660     0.00000000    11.71381000
    5 U5                  92.0000     0.99303340     2.43129500    10.04927760
    6 U6                  92.0000     0.00000000     0.00000000     9.25437845
    7 H1                   1.0000     1.98609660     2.43129500    17.82795027

      Lattice Parameters 
      ------------------ 

      lattice vectors in angstroms (scale by  1.889725989 to convert to a.u.)

      a1=<   2.979   0.000   0.000 >
      a2=<   0.000   4.863   0.000 >
      a3=<   0.000   0.000  23.428 >
      a=       2.979 b=      4.863 c=      23.428
      alpha=  90.000 beta=  90.000 gamma=  90.000
      omega=   339.4

      reciprocal lattice vectors in a.u.

      b1=<   1.116   0.000  -0.000 >
      b2=<  -0.000   0.684  -0.000 >
      b3=<   0.000   0.000   0.142 >

      Atomic Mass 
      ----------- 

      U1               238.050800
      U2               238.050800
      U3               238.050800
      U4               238.050800
      U5               238.050800
      U6               238.050800
      H1                 1.007825


 ==============================================================================
                                internuclear distances
 ------------------------------------------------------------------------------
       center one      |      center two      | atomic units |  angstroms
 ------------------------------------------------------------------------------
    2 U2               |   1 U1               |     5.18543  |     2.74401
    3 U3               |   1 U1               |     5.97386  |     3.16123
    3 U3               |   2 U2               |     5.87556  |     3.10921
    4 U4               |   2 U2               |     6.09566  |     3.22569
    4 U4               |   3 U3               |     6.49940  |     3.43933
    5 U5               |   3 U3               |     6.09607  |     3.22590
    5 U5               |   4 U4               |     5.87581  |     3.10935
    6 U6               |   4 U4               |     5.97386  |     3.16123
    6 U6               |   5 U5               |     5.18528  |     2.74393
    7 H1               |   1 U1               |     4.25186  |     2.24999
 ------------------------------------------------------------------------------
                         number of included internuclear distances:         10
 ==============================================================================



 ==============================================================================
                                 internuclear angles
 ------------------------------------------------------------------------------
        center 1       |       center 2       |       center 3       |  degrees
 ------------------------------------------------------------------------------
    1 U1               |   2 U2               |   3 U3               |    65.03
    2 U2               |   1 U1               |   7 H1               |   106.84
    3 U3               |   1 U1               |   7 H1               |   141.08
    1 U1               |   2 U2               |   3 U3               |    65.03
    1 U1               |   2 U2               |   4 U4               |    99.46
    3 U3               |   2 U2               |   4 U4               |    65.74
    3 U3               |   2 U2               |   1 U1               |    65.03
    1 U1               |   3 U3               |   4 U4               |    87.42
    1 U1               |   3 U3               |   5 U5               |   123.15
    3 U3               |   2 U2               |   4 U4               |    65.74
    2 U2               |   3 U3               |   5 U5               |   114.27
    3 U3               |   5 U5               |   4 U4               |    65.73
    4 U4               |   2 U2               |   3 U3               |    65.74
    2 U2               |   4 U4               |   5 U5               |   114.27
    2 U2               |   4 U4               |   6 U6               |   123.15
    4 U4               |   5 U5               |   3 U3               |    65.73
    3 U3               |   4 U4               |   6 U6               |    87.42
    4 U4               |   5 U5               |   6 U6               |    65.03
    3 U3               |   5 U5               |   4 U4               |    65.73
    3 U3               |   5 U5               |   6 U6               |    99.45
    4 U4               |   5 U5               |   6 U6               |    65.03
    6 U6               |   5 U5               |   4 U4               |    65.03
 ------------------------------------------------------------------------------
                            number of included internuclear angles:         22
 ==============================================================================



          **********************************************************
          *                                                        *
          *                   NWPW BAND Calculation                *
          *                                                        *
          *  [(bundled Grassman/Stiefel manifold implementation)]  *
          *                                                        *
          *         [ NorthWest Chemistry implementation ]         *
          *                                                        *
          *                version #1.10   01/31/03                *
          *                                                        *
          *  A pseudopotential plane-wave band structure program   *
          *  with Brillouin zone sampling for optimizing crystals, *
          *  slabs, and polymers.  Developed by Eric J. Bylaska    *
          *  , Edoardo Apra, and Patrick Nichols.                  *
          *                                                        *
          **********************************************************
     >>>  JOB STARTED       AT Sun Mar 10 07:54:45 2013  <<<
          ================ input data ========================
  library name resolved from: environment
  NWCHEM_NWPW_LIBRARY set to: </home/davis68/nwchem/nwchem-6.1/src/nwpw/libraryps/>
 Generating 1d pseudopotential for U   

 Generated formatted_filename: ./perm/U.cpp
 - Spline fitted, nray=42243 -
  library name resolved from: environment
  NWCHEM_NWPW_LIBRARY set to: </home/davis68/nwchem/nwchem-6.1/src/nwpw/libraryps/>
 Generating 1d pseudopotential for H   

 Generated formatted_filename: ./perm/H.cpp
 - Spline fitted, nray=42243 -
 random planewave guess, initial psi:U6H-211-top.movecs                                
 -   spin, nalpha, nbeta:                    2                   43                   42

 input psi filename:./perm/U6H-211-top.movecs
Warning - Orthogonalization performed, spin,zone: 1   1
        - error(before)=  0.602513E+01 (  0.369749E+02)
        - error(after)=   0.000000E+00 (  0.430000E+02)
Warning - Orthogonalization performed, spin,zone: 2   1
        - error(before)=  0.588786E+01 (  0.361121E+02)
        - error(after)=   0.142109E-13 (  0.420000E+02)
Warning - Orthogonalization performed, spin,zone: 1   2
        - error(before)=  0.602593E+01 (  0.369741E+02)
        - error(after)=   0.710543E-14 (  0.430000E+02)
Warning - Orthogonalization performed, spin,zone: 2   2
        - error(before)=  0.588745E+01 (  0.361125E+02)
        - error(after)=   0.710543E-14 (  0.420000E+02)
Warning - Orthogonalization performed, spin,zone: 1   3
        - error(before)=  0.602555E+01 (  0.369744E+02)
        - error(after)=   0.000000E+00 (  0.430000E+02)
Warning - Orthogonalization performed, spin,zone: 2   3
        - error(before)=  0.588778E+01 (  0.361122E+02)
        - error(after)=   0.000000E+00 (  0.420000E+02)
Warning - Orthogonalization performed, spin,zone: 1   4
        - error(before)=  0.602510E+01 (  0.369749E+02)
        - error(after)=   0.710543E-14 (  0.430000E+02)
Warning - Orthogonalization performed, spin,zone: 2   4
        - error(before)=  0.588810E+01 (  0.361119E+02)
        - error(after)=   0.000000E+00 (  0.420000E+02)
Warning - Orthogonalization performed, spin,zone: 1   5
        - error(before)=  0.602583E+01 (  0.369742E+02)
        - error(after)=   0.710543E-14 (  0.430000E+02)
Warning - Orthogonalization performed, spin,zone: 2   5
        - error(before)=  0.588776E+01 (  0.361122E+02)
        - error(after)=   0.710543E-14 (  0.420000E+02)
Warning - Orthogonalization performed, spin,zone: 1   6
        - error(before)=  0.602613E+01 (  0.369739E+02)
        - error(after)=   0.710543E-14 (  0.430000E+02)
Warning - Orthogonalization performed, spin,zone: 2   6
        - error(before)=  0.588734E+01 (  0.361127E+02)
        - error(after)=   0.000000E+00 (  0.420000E+02)
Warning - Orthogonalization performed, spin,zone: 1   7
        - error(before)=  0.602506E+01 (  0.369749E+02)
        - error(after)=   0.000000E+00 (  0.430000E+02)
Warning - Orthogonalization performed, spin,zone: 2   7
        - error(before)=  0.588856E+01 (  0.361114E+02)
        - error(after)=   0.710543E-14 (  0.420000E+02)
Warning - Orthogonalization performed, spin,zone: 1   8
        - error(before)=  0.602606E+01 (  0.369739E+02)
        - error(after)=   0.710543E-14 (  0.430000E+02)
Warning - Orthogonalization performed, spin,zone: 2   8
        - error(before)=  0.588767E+01 (  0.361123E+02)
        - error(after)=   0.000000E+00 (  0.420000E+02)

 number of processors used:             288
 processor grid           :  36 x   1 x   8
 parallel mapping         :     2d  hilbert

 options:
      boundary conditions  = periodic    (version3)
      electron spin        = unrestricted
      exchange-correlation = PBE96 (White and Bird) parameterization

 elements involved in the cluster:
      1: U     core charge:14.0  lmax=3
             comment    : Parameterized (J.Chem. Phys. vol 128, 124507 (2008)) Troullier-Martins psp
             pseudpotential type            :   0
             highest angular component      :   3
             local potential used           :   0
             number of non-local projections:  15
             cutoff =   1.421   1.602   2.400   1.250
      2: H     core charge: 1.0  lmax=1
             comment    : Parameterized (Chem.Phys.Lett., vol 322, page 447) Hamman psp
             pseudpotential type            :   0
             highest angular component      :   1
             local potential used           :   1
             number of non-local projections:   1
             cutoff =   0.800   0.800

 total charge:   0.000

 atomic composition:
     U   :  6     H   :  1

 number of electrons: spin up=   43.00  spin down=   42.00 (fourier space)
 number of orbitals:  spin up=      43  spin down=      42 (fourier space)

 supercell:
      lattice:    a1=<   5.630   0.000   0.000 >
                  a2=<   0.000   9.189   0.000 >
                  a3=<   0.000   0.000  44.272 >
      reciprocal: b1=<   1.116   0.000  -0.000 >
                  b2=<  -0.000   0.684  -0.000 >
                  b3=<   0.000   0.000   0.142 >

      lattice:    a=   5.630    b=   9.189     c=  44.272
              alpha=  90.000 beta=  90.000 gamma=  90.000
      volume :     2290.2
      ewald summation: cut radius=    3.00  and  8
                        madelung=-3.07590645

 brillouin zone:
      number of zone points:     8
      weight=   0.125  ks=<   0.375   0.375   0.000 >, k=<   0.419   0.256  -0.000>
      weight=   0.125  ks=<   0.125   0.375   0.000 >, k=<   0.140   0.256  -0.000>
      weight=   0.125  ks=<  -0.125   0.375   0.000 >, k=<  -0.140   0.256  -0.000>
      weight=   0.125  ks=<   0.375  -0.375   0.000 >, k=<   0.419  -0.256  -0.000>
      weight=   0.125  ks=<   0.375   0.125   0.000 >, k=<   0.419   0.085  -0.000>
      weight=   0.125  ks=<   0.125   0.125   0.000 >, k=<   0.140   0.085  -0.000>
      weight=   0.125  ks=<   0.125  -0.125   0.000 >, k=<   0.140  -0.085  -0.000>
      weight=   0.125  ks=<   0.375  -0.125   0.000 >, k=<   0.419  -0.085  -0.000>

 computational grids:
      density     cutoff=180.000  fft=  60x  96x 480(   263991 waves     7333 per task)
      wavefnc   1 cutoff= 90.000  fft=  60x  96x 480(    93406 waves     2594 per task)
      wavefnc   2 cutoff= 90.000  fft=  60x  96x 480(    93331 waves     2592 per task)
      wavefnc   3 cutoff= 90.000  fft=  60x  96x 480(    93331 waves     2592 per task)
      wavefnc   4 cutoff= 90.000  fft=  60x  96x 480(    93406 waves     2594 per task)
      wavefnc   5 cutoff= 90.000  fft=  60x  96x 480(    93512 waves     2597 per task)
      wavefnc   6 cutoff= 90.000  fft=  60x  96x 480(    93355 waves     2593 per task)
      wavefnc   7 cutoff= 90.000  fft=  60x  96x 480(    93355 waves     2593 per task)
      wavefnc   8 cutoff= 90.000  fft=  60x  96x 480(    93512 waves     2597 per task)

 technical parameters:
      time step=      5.80     ficticious mass=  400000.0
      tolerance=.100E-06 (energy)   0.100E-06 (density)
      maximum iterations =      3000 (   10 inner    300 outer )



= energy calculation =


          ======== bundled Grassmann lmbfgs iteration ========
     >>>  ITERATION STARTED AT Sun Mar 10 08:02:02 2013  <<<
    iter.           Energy         DeltaE       DeltaRho 
    ------------------------------------------------------
     -  10 steepest descent iterations performed
      10   -0.2867824733E+03   -0.32556E+01    0.74874E+01
     -  10 steepest descent iterations performed
      20   -0.3042531772E+03   -0.33302E+00    0.99677E-01
     -  10 steepest descent iterations performed
      30   -0.3065036702E+03   -0.12325E+00    0.32975E-01
     -  10 steepest descent iterations performed
      40   -0.3073306818E+03   -0.40478E-01    0.70534E-02
     -  10 steepest descent iterations performed
      50   -0.3077119203E+03   -0.22880E-01    0.48065E-02
     -  10 steepest descent iterations performed
      60   -0.3079186366E+03   -0.11445E-01    0.22043E-02
     -  10 steepest descent iterations performed
      70   -0.3080445547E+03   -0.82044E-02    0.19757E-02
      80   -0.3082090751E+03   -0.53155E-02    0.97499E-02
      90   -0.3082445592E+03   -0.45936E-02    0.96763E-03
     100   -0.3082923924E+03   -0.33562E-02    0.35549E-02
     110   -0.3083166756E+03   -0.17638E-02    0.10131E-02
     120   -0.3083389839E+03   -0.30281E-02    0.14257E-02
     -  10 steepest descent iterations performed
     130   -0.3083600387E+03   -0.10572E-02    0.20442E-03
     140   -0.3083794581E+03   -0.23271E-02    0.94496E-03
     -  10 steepest descent iterations performed
     150   -0.3083907655E+03   -0.67726E-03    0.26015E-03
     160   -0.3083998516E+03   -0.93414E-03    0.82398E-03
     -  10 steepest descent iterations performed
     170   -0.3084085267E+03   -0.41455E-03    0.18559E-03
     180   -0.3084141793E+03   -0.61058E-03    0.41976E-03
     -  10 steepest descent iterations performed
     190   -0.3084207054E+03   -0.39786E-03    0.23176E-03
     200   -0.3084251076E+03   -0.41463E-03    0.39349E-03
     -  10 steepest descent iterations performed
     210   -0.3084306585E+03   -0.27736E-03    0.16852E-03
     220   -0.3084341335E+03   -0.38296E-03    0.29549E-03
     -  10 steepest descent iterations performed
     230   -0.3084388824E+03   -0.29680E-03    0.19668E-03
     240   -0.3084421545E+03   -0.31665E-03    0.34282E-03
     -  10 steepest descent iterations performed
     250   -0.3084468504E+03   -0.24707E-03    0.17825E-03
     260   -0.3084500415E+03   -0.37083E-03    0.36836E-03
     -  10 steepest descent iterations performed
     270   -0.3084549238E+03   -0.31722E-03    0.23178E-03
     280   -0.3084584664E+03   -0.35041E-03    0.46490E-03
     -  10 steepest descent iterations performed
     290   -0.3084639289E+03   -0.28973E-03    0.22683E-03
     300   -0.3084675124E+03   -0.39927E-03    0.44338E-03
     -  10 steepest descent iterations performed
     310   -0.3084729291E+03   -0.34523E-03    0.25727E-03
     320   -0.3084763556E+03   -0.30464E-03    0.37965E-03
     330   -0.3084888800E+03   -0.44420E-03    0.38463E-02
     -  10 steepest descent iterations performed
     340   -0.3084934808E+03   -0.20619E-03    0.21048E-03
     350   -0.3084949755E+03   -0.16818E-03    0.10630E-03
     360   -0.3084978190E+03   -0.13077E-03    0.62481E-03
     370   -0.3085001898E+03   -0.17053E-03    0.57993E-03
     -  10 steepest descent iterations performed