----------------------------------------
Begin Torque Prologue (Sat Mar 16 19:26:35 2013)
Job ID:           389513.taubm1.campuscluster.illinois.edu
Username:         davis68
Group:            npre_rizwan
Job Name:         U6H-211-opt-es
Limits:           ncpus=1,neednodes=24:ppn=12,nodes=24:ppn=12,walltime=04:00:00
Job Queue:        cse
Account:          NPRE
Nodes:            taub276 taub281 taub283 taub284 taub297 taub313 taub314 taub324 taub325 taub328 taub337 taub338 taub339 taub344 taub345 taub350 taub362 taub369 taub434 taub487 taub489 taub490 taub491 taub497
End Torque Prologue
----------------------------------------
 argument  1 = ./U6H-211-opt-es.nw



============================== echo of input deck ==============================
title "Gamma-uranium (211) adsorption"
echo

permanent_dir ./perm
scratch_dir   ./scratch

restart U6H-211-ctr

memory 2500 mb

nwpw
  # Real-space discretization
  simulation_cell
    ngrid 36 48 320
  end

  # Spin multiplicity---quenched to 1 in the solid state
  mult 2

  # Band, k-point sampling, and parallelism
  monkhorst-pack 4 4 1
  np_dimensions 10 10 12
  mapping 2

  # Periodicity considerations
  ewald_rcut 3.0
  ewald_ncut 8

  # Simulation parameters
  #restricted    # DFT||ODFT||RESTRICTED||UNRESTRICTED
  xc pbe96
  cutoff 90.0
  loop 10 300
end
set nwpw:minimizer      2
set nwpw:lcao_skip      .true.
set nwpw:kbpp_ray       .true.
set nwpw:cif_filename U6-pbe96.opt

#       (211) gamma-uranium surface with surface displacements: 43.40%  -18.50% and H displacement of   0.250   Å
geometry        center  noautosym       noautoz print
        system  crystal
        lat_a   2.97913
        lat_b   4.86259
        lat_c   23.42762
        alpha   90.0d0
        beta    90.0d0
        gamma   90.0d0
        end
        U1      0.66667 0.50000 0.66494
        U2      0.33333 0.00000 0.63100
        U3      0.00000 0.50000 0.55996
        U4      0.66667 0.00000 0.50000
        U5      0.33333 0.50000 0.42895
        U6      0.00000 0.00000 0.39502
        H1      0.83333 0.00000 0.67561
end
#task band energy

nwpw
  simulation_cell
    ngrid 60 96 480
  end
end

#       (211) gamma-uranium surface with surface displacements:	43.40%	-18.50%	and H displacement of	0.740	Å
geometry	center	noautosym	noautoz	print
	system	crystal
	lat_a	2.97913
	lat_b	4.86259
	lat_c	23.42762
	alpha	90.0d0
	beta	90.0d0
	gamma	90.0d0
	end
	U1	0.66667	0.50000	0.66494
	U2	0.33333	0.00000	0.63100
	U3	0.00000	0.50000	0.55996
	U4	0.66667	0.00000	0.50000
	U5	0.33333	0.50000	0.42895
	U6	0.00000	0.00000	0.39502
	H1	0.83333	0.00000	0.69652
end
task band energy

constraints
  clear
end

# Get the electronic characteristics of this geometry.
nwpw
  dos
  efield
  mulliken
  #esp
  #efieldgrad
  #electrondensity
end
task pspw energy ignore
set nwpw:dos:actlist 7
task pspw energy ignore

# A.M.D.G.
================================================================================


                                         
                                         


             Northwest Computational Chemistry Package (NWChem) 6.1.1
             --------------------------------------------------------


                    Environmental Molecular Sciences Laboratory
                       Pacific Northwest National Laboratory
                                Richland, WA 99352

                              Copyright (c) 1994-2012
                       Pacific Northwest National Laboratory
                            Battelle Memorial Institute

             NWChem is an open-source computational chemistry package
                        distributed under the terms of the
                      Educational Community License (ECL) 2.0
             A copy of the license is included with this distribution
                              in the LICENSE.TXT file

                                  ACKNOWLEDGMENT
                                  --------------

            This software and its documentation were developed at the
            EMSL at Pacific Northwest National Laboratory, a multiprogram
            national laboratory, operated for the U.S. Department of Energy
            by Battelle under Contract Number DE-AC05-76RL01830. Support
            for this work was provided by the Department of Energy Office
            of Biological and Environmental Research, Office of Basic
            Energy Sciences, and the Office of Advanced Scientific Computing.


           Job information
           ---------------

    hostname        = taub497
    program         = /home/davis68/bin/nwchem-dev
    date            = Sat Mar 16 19:27:41 2013

    compiled        = Wed_Oct_03_09:41:00_2012
    source          = /home/davis68/nwchem/nwchem-src-2012-Aug-27/
    nwchem branch   = Development
    nwchem revision = 22805
    ga revision     = 10079
    input           = ./U6H-211-opt-es.nw
    prefix          = U6H-211-ctr.
    data base       = ./perm/U6H-211-ctr.db
    status          = restart
    nproc           =      288
    time left       =     -1s



           Memory information
           ------------------

    heap     =   81920001 doubles =    625.0 Mbytes
    stack    =   81920001 doubles =    625.0 Mbytes
    global   =  163840000 doubles =   1250.0 Mbytes (distinct from heap & stack)
    total    =  327680002 doubles =   2500.0 Mbytes
    verify   = yes
    hardfail = no 


           Directory information
           ---------------------

  0 permanent = ./perm
  0 scratch   = ./scratch


           Previous task information
           -------------------------

    Theory    = band                            
    Operation = energy                        
    Status    = ok                            
    Qmmm      = F
    Ignore    = F


           Geometries in the database
           --------------------------

       Name                              Natoms  Last Modified
       --------------------------------  ------  ------------------------
    1  geometry                               7  Sat Mar  9 12:31:09 2013  

  The geometry named "geometry" is the default for restart



           Basis sets in the database
           --------------------------

  There are no basis sets in the database



                                NWChem Input Module
                                -------------------


                          Gamma-uranium (211) adsorption
                          ------------------------------

  !!!!!!!!!  geom_3d NEEDS TESTING !!!!!!!!!! 


                             Geometry "geometry" -> ""
                             -------------------------

 Output coordinates in angstroms (scale by  1.889725989 to convert to a.u.)

  No.       Tag          Charge          X              Y              Z
 ---- ---------------- ---------- -------------- -------------- --------------
    1 U1                  92.0000     1.98609660     2.43129500    15.57796164
    2 U2                  92.0000     0.99303340     0.00000000    14.78282822
    3 U3                  92.0000     0.00000000     2.43129500    13.11853010
    4 U4                  92.0000     1.98609660     0.00000000    11.71381000
    5 U5                  92.0000     0.99303340     2.43129500    10.04927760
    6 U6                  92.0000     0.00000000     0.00000000     9.25437845
    7 H1                   1.0000     2.48259840     0.00000000    15.82793435

      Lattice Parameters 
      ------------------ 

      lattice vectors in angstroms (scale by  1.889725989 to convert to a.u.)

      a1=<   2.979   0.000   0.000 >
      a2=<   0.000   4.863   0.000 >
      a3=<   0.000   0.000  23.428 >
      a=       2.979 b=      4.863 c=      23.428
      alpha=  90.000 beta=  90.000 gamma=  90.000
      omega=   339.4

      reciprocal lattice vectors in a.u.

      b1=<   1.116   0.000  -0.000 >
      b2=<  -0.000   0.684  -0.000 >
      b3=<   0.000   0.000   0.142 >

      Atomic Mass 
      ----------- 

      U1               238.050800
      U2               238.050800
      U3               238.050800
      U4               238.050800
      U5               238.050800
      U6               238.050800
      H1                 1.007825


 ==============================================================================
                                internuclear distances
 ------------------------------------------------------------------------------
       center one      |      center two      | atomic units |  angstroms
 ------------------------------------------------------------------------------
    2 U2               |   1 U1               |     5.18543  |     2.74401
    3 U3               |   1 U1               |     5.97386  |     3.16123
    3 U3               |   2 U2               |     5.87556  |     3.10921
    4 U4               |   2 U2               |     6.09566  |     3.22569
    4 U4               |   3 U3               |     6.49940  |     3.43933
    5 U5               |   3 U3               |     6.09607  |     3.22590
    5 U5               |   4 U4               |     5.87581  |     3.10935
    6 U6               |   4 U4               |     5.97386  |     3.16123
    6 U6               |   5 U5               |     5.18528  |     2.74393
    7 H1               |   1 U1               |     4.71304  |     2.49403
    7 H1               |   2 U2               |     3.43860  |     1.81963
 ------------------------------------------------------------------------------
                         number of included internuclear distances:         11
 ==============================================================================



 ==============================================================================
                                 internuclear angles
 ------------------------------------------------------------------------------
        center 1       |       center 2       |       center 3       |  degrees
 ------------------------------------------------------------------------------
    1 U1               |   2 U2               |   3 U3               |    65.03
    1 U1               |   7 H1               |   2 U2               |    77.26
    3 U3               |   1 U1               |   7 H1               |   101.72
    1 U1               |   2 U2               |   3 U3               |    65.03
    1 U1               |   2 U2               |   4 U4               |    99.46
    2 U2               |   7 H1               |   1 U1               |    77.26
    3 U3               |   2 U2               |   4 U4               |    65.74
    3 U3               |   2 U2               |   7 H1               |   124.67
    4 U4               |   2 U2               |   7 H1               |   107.12
    3 U3               |   2 U2               |   1 U1               |    65.03
    1 U1               |   3 U3               |   4 U4               |    87.42
    1 U1               |   3 U3               |   5 U5               |   123.15
    3 U3               |   2 U2               |   4 U4               |    65.74
    2 U2               |   3 U3               |   5 U5               |   114.27
    3 U3               |   5 U5               |   4 U4               |    65.73
    4 U4               |   2 U2               |   3 U3               |    65.74
    2 U2               |   4 U4               |   5 U5               |   114.27
    2 U2               |   4 U4               |   6 U6               |   123.15
    4 U4               |   5 U5               |   3 U3               |    65.73
    3 U3               |   4 U4               |   6 U6               |    87.42
    4 U4               |   5 U5               |   6 U6               |    65.03
    3 U3               |   5 U5               |   4 U4               |    65.73
    3 U3               |   5 U5               |   6 U6               |    99.45
    4 U4               |   5 U5               |   6 U6               |    65.03
    6 U6               |   5 U5               |   4 U4               |    65.03
    1 U1               |   7 H1               |   2 U2               |    77.26
 ------------------------------------------------------------------------------
                            number of included internuclear angles:         26
 ==============================================================================




  !!!!!!!!!  geom_3d NEEDS TESTING !!!!!!!!!! 


                         Geometry "geometry" -> "        "
                         ---------------------------------

 Output coordinates in angstroms (scale by  1.889725989 to convert to a.u.)

  No.       Tag          Charge          X              Y              Z
 ---- ---------------- ---------- -------------- -------------- --------------
    1 U1                  92.0000     1.98609660     2.43129500    15.57796164
    2 U2                  92.0000     0.99303340     0.00000000    14.78282822
    3 U3                  92.0000     0.00000000     2.43129500    13.11853010
    4 U4                  92.0000     1.98609660     0.00000000    11.71381000
    5 U5                  92.0000     0.99303340     2.43129500    10.04927760
    6 U6                  92.0000     0.00000000     0.00000000     9.25437845
    7 H1                   1.0000     2.48259840     0.00000000    16.31780588

      Lattice Parameters 
      ------------------ 

      lattice vectors in angstroms (scale by  1.889725989 to convert to a.u.)

      a1=<   2.979   0.000   0.000 >
      a2=<   0.000   4.863   0.000 >
      a3=<   0.000   0.000  23.428 >
      a=       2.979 b=      4.863 c=      23.428
      alpha=  90.000 beta=  90.000 gamma=  90.000
      omega=   339.4

      reciprocal lattice vectors in a.u.

      b1=<   1.116   0.000  -0.000 >
      b2=<  -0.000   0.684  -0.000 >
      b3=<   0.000   0.000   0.142 >

      Atomic Mass 
      ----------- 

      U1               238.050800
      U2               238.050800
      U3               238.050800
      U4               238.050800
      U5               238.050800
      U6               238.050800
      H1                 1.007825


 ==============================================================================
                                internuclear distances
 ------------------------------------------------------------------------------
       center one      |      center two      | atomic units |  angstroms
 ------------------------------------------------------------------------------
    2 U2               |   1 U1               |     5.18543  |     2.74401
    3 U3               |   1 U1               |     5.97386  |     3.16123
    3 U3               |   2 U2               |     5.87556  |     3.10921
    4 U4               |   2 U2               |     6.09566  |     3.22569
    4 U4               |   3 U3               |     6.49940  |     3.43933
    5 U5               |   3 U3               |     6.09607  |     3.22590
    5 U5               |   4 U4               |     5.87581  |     3.10935
    6 U6               |   4 U4               |     5.97386  |     3.16123
    6 U6               |   5 U5               |     5.18528  |     2.74393
    7 H1               |   2 U2               |     4.04196  |     2.13892
 ------------------------------------------------------------------------------
                         number of included internuclear distances:         10
 ==============================================================================



 ==============================================================================
                                 internuclear angles
 ------------------------------------------------------------------------------
        center 1       |       center 2       |       center 3       |  degrees
 ------------------------------------------------------------------------------
    1 U1               |   2 U2               |   3 U3               |    65.03
    1 U1               |   2 U2               |   3 U3               |    65.03
    1 U1               |   2 U2               |   4 U4               |    99.46
    1 U1               |   2 U2               |   7 H1               |    62.61
    3 U3               |   2 U2               |   4 U4               |    65.74
    3 U3               |   2 U2               |   7 H1               |   127.34
    4 U4               |   2 U2               |   7 H1               |   117.93
    3 U3               |   2 U2               |   1 U1               |    65.03
    1 U1               |   3 U3               |   4 U4               |    87.42
    1 U1               |   3 U3               |   5 U5               |   123.15
    3 U3               |   2 U2               |   4 U4               |    65.74
    2 U2               |   3 U3               |   5 U5               |   114.27
    3 U3               |   5 U5               |   4 U4               |    65.73
    4 U4               |   2 U2               |   3 U3               |    65.74
    2 U2               |   4 U4               |   5 U5               |   114.27
    2 U2               |   4 U4               |   6 U6               |   123.15
    4 U4               |   5 U5               |   3 U3               |    65.73
    3 U3               |   4 U4               |   6 U6               |    87.42
    4 U4               |   5 U5               |   6 U6               |    65.03
    3 U3               |   5 U5               |   4 U4               |    65.73
    3 U3               |   5 U5               |   6 U6               |    99.45
    4 U4               |   5 U5               |   6 U6               |    65.03
    6 U6               |   5 U5               |   4 U4               |    65.03
 ------------------------------------------------------------------------------
                            number of included internuclear angles:         23
 ==============================================================================



          **********************************************************
          *                                                        *
          *                   NWPW BAND Calculation                *
          *                                                        *
          *  [(bundled Grassman/Stiefel manifold implementation)]  *
          *                                                        *
          *         [ NorthWest Chemistry implementation ]         *
          *                                                        *
          *                version #1.10   01/31/03                *
          *                                                        *
          *  A pseudopotential plane-wave band structure program   *
          *  with Brillouin zone sampling for optimizing crystals, *
          *  slabs, and polymers.  Developed by Eric J. Bylaska    *
          *  , Edoardo Apra, and Patrick Nichols.                  *
          *                                                        *
          **********************************************************
     >>>  JOB STARTED       AT Sat Mar 16 19:27:43 2013  <<<
          ================ input data ========================

 input psi filename:./perm/U6H-211-ctr.movecs

 number of processors used:             288
 processor grid           :  36 x   1 x   8
 parallel mapping         :     2d  hilbert

 options:
      boundary conditions  = periodic    (version3)
      electron spin        = unrestricted
      exchange-correlation = PBE96 (White and Bird) parameterization

 elements involved in the cluster:
      1: U     core charge:14.0  lmax=3
             comment    : Parameterized (J.Chem. Phys. vol 128, 124507 (2008)) Troullier-Martins psp
             pseudpotential type            :   0
             highest angular component      :   3
             local potential used           :   0
             number of non-local projections:  15
             cutoff =   1.421   1.602   2.400   1.250
      2: H     core charge: 1.0  lmax=1
             comment    : Parameterized (Chem.Phys.Lett., vol 322, page 447) Hamman psp
             pseudpotential type            :   0
             highest angular component      :   1
             local potential used           :   1
             number of non-local projections:   1
             cutoff =   0.800   0.800

 total charge:   0.000

 atomic composition:
     U   :  6     H   :  1

 number of electrons: spin up=   43.00  spin down=   42.00 (fourier space)
 number of orbitals:  spin up=      43  spin down=      42 (fourier space)

 supercell:
      lattice:    a1=<   5.630   0.000   0.000 >
                  a2=<   0.000   9.189   0.000 >
                  a3=<   0.000   0.000  44.272 >
      reciprocal: b1=<   1.116   0.000  -0.000 >
                  b2=<  -0.000   0.684  -0.000 >
                  b3=<   0.000   0.000   0.142 >

      lattice:    a=   5.630    b=   9.189     c=  44.272
              alpha=  90.000 beta=  90.000 gamma=  90.000
      volume :     2290.2
      ewald summation: cut radius=    3.00  and  8
                        madelung=-3.07590645

 brillouin zone:
      number of zone points:     8
      weight=   0.125  ks=<   0.375   0.375   0.000 >, k=<   0.419   0.256  -0.000>
      weight=   0.125  ks=<   0.125   0.375   0.000 >, k=<   0.140   0.256  -0.000>
      weight=   0.125  ks=<  -0.125   0.375   0.000 >, k=<  -0.140   0.256  -0.000>
      weight=   0.125  ks=<   0.375  -0.375   0.000 >, k=<   0.419  -0.256  -0.000>
      weight=   0.125  ks=<   0.375   0.125   0.000 >, k=<   0.419   0.085  -0.000>
      weight=   0.125  ks=<   0.125   0.125   0.000 >, k=<   0.140   0.085  -0.000>
      weight=   0.125  ks=<   0.125  -0.125   0.000 >, k=<   0.140  -0.085  -0.000>
      weight=   0.125  ks=<   0.375  -0.125   0.000 >, k=<   0.419  -0.085  -0.000>

 computational grids:
      density     cutoff=180.000  fft=  60x  96x 480(   263991 waves     7333 per task)
      wavefnc   1 cutoff= 90.000  fft=  60x  96x 480(    93406 waves     2594 per task)
      wavefnc   2 cutoff= 90.000  fft=  60x  96x 480(    93331 waves     2592 per task)
      wavefnc   3 cutoff= 90.000  fft=  60x  96x 480(    93331 waves     2592 per task)
      wavefnc   4 cutoff= 90.000  fft=  60x  96x 480(    93406 waves     2594 per task)
      wavefnc   5 cutoff= 90.000  fft=  60x  96x 480(    93512 waves     2597 per task)
      wavefnc   6 cutoff= 90.000  fft=  60x  96x 480(    93355 waves     2593 per task)
      wavefnc   7 cutoff= 90.000  fft=  60x  96x 480(    93355 waves     2593 per task)
      wavefnc   8 cutoff= 90.000  fft=  60x  96x 480(    93512 waves     2597 per task)

 technical parameters:
      time step=      5.80     ficticious mass=  400000.0
      tolerance=.100E-06 (energy)   0.100E-06 (density)
      maximum iterations =      3000 (   10 inner    300 outer )



= energy calculation =


          ======== bundled Grassmann lmbfgs iteration ========
     >>>  ITERATION STARTED AT Sat Mar 16 19:32:39 2013  <<<
    iter.           Energy         DeltaE       DeltaRho 
    ------------------------------------------------------
      10   -0.3077161713E+03   -0.25163E-01    0.55772E-01
     -  10 steepest descent iterations performed
      20   -0.3082191748E+03   -0.47348E-01    0.16130E-01
     -  10 steepest descent iterations performed
      30   -0.3084935957E+03   -0.42170E-02    0.24706E-02
      40   -0.3085222311E+03   -0.21860E-02    0.53315E-03
      50   -0.3085319038E+03   -0.71280E-03    0.12740E-03
      60   -0.3085368825E+03   -0.33732E-03    0.70047E-04
      70   -0.3085400625E+03   -0.31334E-03    0.69140E-04
      80   -0.3085425661E+03   -0.22070E-03    0.78781E-04
      90   -0.3085443699E+03   -0.14569E-03    0.74188E-04
     100   -0.3085456710E+03   -0.11640E-03    0.70835E-04
     110   -0.3085466574E+03   -0.85701E-04    0.71780E-04
     120   -0.3085473877E+03   -0.62476E-04    0.69947E-04
     130   -0.3085479399E+03   -0.49548E-04    0.69432E-04
     140   -0.3085483798E+03   -0.40573E-04    0.71600E-04
     150   -0.3085487459E+03   -0.34635E-04    0.77801E-04
     160   -0.3085490811E+03   -0.31780E-04    0.96098E-04
     170   -0.3085493733E+03   -0.27098E-04    0.99785E-04
     180   -0.3085496372E+03   -0.25366E-04    0.10765E-03
     190   -0.3085498741E+03   -0.22690E-04    0.10969E-03
     200   -0.3085500849E+03   -0.20128E-04    0.10636E-03
     210   -0.3085502690E+03   -0.16940E-04    0.97431E-04
     220   -0.3085504254E+03   -0.14679E-04    0.83027E-04
     230   -0.3085505601E+03   -0.12527E-04    0.71993E-04
     240   -0.3085506745E+03   -0.10766E-04    0.60377E-04
     250   -0.3085507731E+03   -0.93097E-05    0.51827E-04
     260   -0.3085508624E+03   -0.85650E-05    0.49094E-04
     270   -0.3085509438E+03   -0.76401E-05    0.47071E-04
     280   -0.3085510151E+03   -0.67670E-05    0.41414E-04
     290   -0.3085510808E+03   -0.65146E-05    0.40705E-04
     300   -0.3085511443E+03   -0.61592E-05    0.43799E-04
     310   -0.3085512027E+03   -0.55041E-05    0.42557E-04
     320   -0.3085512548E+03   -0.50233E-05    0.39123E-04
     330   -0.3085513038E+03   -0.48350E-05    0.40113E-04
     340   -0.3085513519E+03   -0.47196E-05    0.44237E-04
     350   -0.3085513980E+03   -0.44889E-05    0.46029E-04
     360   -0.3085514419E+03   -0.42340E-05    0.46184E-04
     370   -0.3085514824E+03   -0.39218E-05    0.43184E-04
     380   -0.3085515197E+03   -0.35421E-05    0.39614E-04
     390   -0.3085515525E+03   -0.30530E-05    0.32736E-04
     400   -0.3085515805E+03   -0.25492E-05    0.25081E-04
     410   -0.3085516033E+03   -0.21262E-05    0.17774E-04
     420   -0.3085516225E+03   -0.17757E-05    0.13302E-04
     430   -0.3085516388E+03   -0.15019E-05    0.10396E-04
     440   -0.3085516524E+03   -0.12471E-05    0.78103E-05
     450   -0.3085516641E+03   -0.11127E-05    0.64563E-05
     460   -0.3085516745E+03   -0.97615E-06    0.56634E-05
     470   -0.3085516836E+03   -0.85222E-06    0.48678E-05
     480   -0.3085516916E+03   -0.77674E-06    0.44794E-05
     490   -0.3085516990E+03   -0.71214E-06    0.43672E-05
     500   -0.3085517059E+03   -0.66613E-06    0.45030E-05
     510   -0.3085517122E+03   -0.59666E-06    0.42736E-05
     520   -0.3085517179E+03   -0.54118E-06    0.40177E-05
     530   -0.3085517230E+03   -0.48623E-06    0.36770E-05
     540   -0.3085517275E+03   -0.43590E-06    0.33151E-05
     550   -0.3085517317E+03   -0.39363E-06    0.31242E-05
     560   -0.3085517355E+03   -0.37350E-06    0.30241E-05
     570   -0.3085517391E+03   -0.33879E-06    0.29937E-05
     580   -0.3085517423E+03   -0.32063E-06    0.28582E-05
     590   -0.3085517455E+03   -0.30413E-06    0.29339E-05
     600   -0.3085517484E+03   -0.28492E-06    0.29390E-05
     610   -0.3085517511E+03   -0.26205E-06    0.28391E-05
     620   -0.3085517536E+03   -0.22906E-06    0.25099E-05
     630   -0.3085517557E+03   -0.20393E-06    0.21878E-05
     640   -0.3085517576E+03   -0.18806E-06    0.19853E-05
     650   -0.3085517594E+03   -0.16972E-06    0.18881E-05
     660   -0.3085517610E+03   -0.15545E-06    0.17732E-05
     670   -0.3085517625E+03   -0.14306E-06    0.16716E-05
     680   -0.3085517639E+03   -0.13897E-06    0.16928E-05
     690   -0.3085517653E+03   -0.13542E-06    0.18014E-05
     700   -0.3085517666E+03   -0.12455E-06    0.17637E-05
     710   -0.3085517678E+03   -0.11836E-06    0.17317E-05
     720   -0.3085517690E+03   -0.11881E-06    0.18325E-05
     -  10 steepest descent iterations performed
     730   -0.3085517704E+03   -0.12222E-06    0.57265E-07
     -  10 steepest descent iterations performed
     740   -0.3085517708E+03   -0.94898E-07    0.57546E-09
  *** tolerance ok.    iteration terminated.
     >>>  ITERATION ENDED   AT Sat Mar 16 20:44:16 2013  <<<


          =============  summary of results  =================

 number of electrons: spin up=   43.00000  down=   42.00000 (real space)

 total     energy    :  -0.3085517708E+03 (   -0.44079E+02/ion)
 total orbital energy:  -0.2346631742E+02 (   -0.27607E+00/electron)
 hartree   energy    :   0.1352963173E+04 (    0.15917E+02/electron)
 exc-corr  energy    :  -0.3966956184E+02 (   -0.46670E+00/electron)
 ion-ion   energy    :   0.1055885390E+04 (    0.15084E+03/ion)

 K.S. kinetic energy :   0.1444978724E+03 (    0.17000E+01/electron)
 K.S. V_l  energy    :  -0.3476315633E+03 (   -0.40898E+01/electron)
 K.S. V_nl energy    :  -0.5057154104E+02 (   -0.59496E+00/electron)
 K.S. V_Hart energy  :   0.2705926347E+04 (    0.31834E+02/electron)
 K.S. V_xc energy    :  -0.5166189170E+02 (   -0.60779E+00/electron)
 K.S. V_so energy    :   0.0000000000E+00 (    0.00000E+00/electron)
 Virial Coefficient  :   0.1561311120E+02

 Brillouin zone point:      1
    weight=  0.125000
    k     =<   0.375   0.375   0.000> . <b1,b2,b3> 
          =<   0.419   0.256  -0.000>

 orbital energies:
     0.2438231E+00 (   6.635eV) occ=1.000
     0.2415801E+00 (   6.574eV) occ=1.000     0.2409598E+00 (   6.557eV) occ=1.000
     0.2365255E+00 (   6.436eV) occ=1.000     0.2379539E+00 (   6.475eV) occ=1.000
     0.2322680E+00 (   6.320eV) occ=1.000     0.2294848E+00 (   6.245eV) occ=1.000
     0.2296193E+00 (   6.248eV) occ=1.000     0.2256279E+00 (   6.140eV) occ=1.000
     0.2263636E+00 (   6.160eV) occ=1.000     0.2224101E+00 (   6.052eV) occ=1.000
     0.2214386E+00 (   6.026eV) occ=1.000     0.2179046E+00 (   5.930eV) occ=1.000
     0.2188231E+00 (   5.955eV) occ=1.000     0.2171309E+00 (   5.908eV) occ=1.000
     0.2108078E+00 (   5.736eV) occ=1.000     0.2132996E+00 (   5.804eV) occ=1.000
     0.2055525E+00 (   5.593eV) occ=1.000     0.2065666E+00 (   5.621eV) occ=1.000
     0.2014677E+00 (   5.482eV) occ=1.000     0.1998420E+00 (   5.438eV) occ=1.000
     0.1879934E+00 (   5.116eV) occ=1.000     0.1911578E+00 (   5.202eV) occ=1.000
     0.1765535E+00 (   4.804eV) occ=1.000     0.1775098E+00 (   4.830eV) occ=1.000
     0.1731096E+00 (   4.711eV) occ=1.000     0.1721460E+00 (   4.684eV) occ=1.000