----------------------------------------
Begin Torque Prologue (Wed Feb 27 10:31:10 2013)
Job ID:           377544.taubm1.campuscluster.illinois.edu
Username:         davis68
Group:            npre_rizwan
Job Name:         U6O-211-top
Limits:           ncpus=1,neednodes=24:ppn=12,nodes=24:ppn=12,walltime=12:00:00
Job Queue:        cse
Account:          NPRE
Nodes:            taub337 taub351 taub356 taub362 taub382 taub393 taub403 taub420 taub421 taub431 taub435 taub436 taub440 taub453 taub458 taub460 taub464 taub470 taub473 taub475 taub479 taub492 taub500 taub508
End Torque Prologue
----------------------------------------
 argument  1 = ./U6O-211-top.nw



============================== echo of input deck ==============================
title "Gamma-uranium (211) adsorption"
echo

permanent_dir ./perm
scratch_dir   ./scratch

restart U6O-211-top

memory 2500 mb

nwpw
  # Real-space discretization
  simulation_cell
    ngrid 36 48 320
  end

  # Spin multiplicity---quenched to 1 in the solid state
  mult 3

  # Band, k-point sampling, and parallelism
  monkhorst-pack 4 4 1
  np_dimensions 10 10 12
  mapping 2

  # Periodicity considerations
  ewald_rcut 3.0
  ewald_ncut 8

  # Simulation parameters
  #restricted    # DFT||ODFT||RESTRICTED||UNRESTRICTED
  xc pbe96
  cutoff 90.0
  loop 10 300
end
set nwpw:minimizer      2
set nwpw:lcao_skip      .true.
set nwpw:kbpp_ray       .true.
set nwpw:cif_filename U6-pbe96.opt

#       (211) gamma-uranium surface with surface displacements: 43.40%  -18.50% and H displacement of   0.250   Å
geometry        center  noautosym       noautoz print
        system  crystal
        lat_a   2.97913
        lat_b   4.86259
        lat_c   23.42762
        alpha   90.0d0
        beta    90.0d0
        gamma   90.0d0
        end
        U1      0.66667 0.50000 0.66494
        U2      0.33333 0.00000 0.63100
        U3      0.00000 0.50000 0.55996
        U4      0.66667 0.00000 0.50000
        U5      0.33333 0.50000 0.42895
        U6      0.00000 0.00000 0.39502
end
task band energy

#       (211) gamma-uranium surface with surface displacements: 43.40%  -18.50% and H displacement of   0.250   Å
geometry        center  noautosym       noautoz print
        system  crystal
        lat_a   2.97913
        lat_b   4.86259
        lat_c   23.42762
        alpha   90.0d0
        beta    90.0d0
        gamma   90.0d0
        end
        U1      0.66667 0.50000 0.66494
        U2      0.33333 0.00000 0.63100
        U3      0.00000 0.50000 0.55996
        U4      0.66667 0.00000 0.50000
        U5      0.33333 0.50000 0.42895
        U6      0.00000 0.00000 0.39502
        O1      0.66667 0.50000 0.67561
end
#task band energy

nwpw
  simulation_cell
    ngrid 60 96 480
  end
end

#       (211) gamma-uranium surface with surface displacements: 43.40%  -18.50% and H displacement of   0.250   Å
geometry        center  noautosym       noautoz print
        system  crystal
        lat_a   2.97913
        lat_b   4.86259
        lat_c   23.42762
        alpha   90.0d0
        beta    90.0d0
        gamma   90.0d0
        end
        U1      0.66667 0.50000 0.66494
        U2      0.33333 0.00000 0.63100
        U3      0.00000 0.50000 0.55996
        U4      0.66667 0.00000 0.50000
        U5      0.33333 0.50000 0.42895
        U6      0.00000 0.00000 0.39502
        O1      0.66667 0.50000 0.67561
end
task band energy

#       (211) gamma-uranium surface with surface displacements:	43.40%	-18.50%	and H displacement of	0.250	Å
geometry	center	noautosym	noautoz	print
	system	crystal
	lat_a	2.97913
	lat_b	4.86259
	lat_c	23.42762
	alpha	90.0d0
	beta	90.0d0
	gamma	90.0d0
	end
	U1	0.66667	0.50000	0.66494
	U2	0.33333	0.00000	0.63100
	U3	0.00000	0.50000	0.55996
	U4	0.66667	0.00000	0.50000
	U5	0.33333	0.50000	0.42895
	U6	0.00000	0.00000	0.39502
	O1	0.66667	0.50000	0.67561
end
#task band energy

#       (211) gamma-uranium surface with surface displacements:	43.40%	-18.50%	and H displacement of	0.500	Å
geometry	center	noautosym	noautoz	print
	system	crystal
	lat_a	2.97913
	lat_b	4.86259
	lat_c	23.42762
	alpha	90.0d0
	beta	90.0d0
	gamma	90.0d0
	end
	U1	0.66667	0.50000	0.66494
	U2	0.33333	0.00000	0.63100
	U3	0.00000	0.50000	0.55996
	U4	0.66667	0.00000	0.50000
	U5	0.33333	0.50000	0.42895
	U6	0.00000	0.00000	0.39502
	O1	0.66667	0.50000	0.68628
end
task band energy

#       (211) gamma-uranium surface with surface displacements:	43.40%	-18.50%	and H displacement of	0.750	Å
geometry	center	noautosym	noautoz	print
	system	crystal
	lat_a	2.97913
	lat_b	4.86259
	lat_c	23.42762
	alpha	90.0d0
	beta	90.0d0
	gamma	90.0d0
	end
	U1	0.66667	0.50000	0.66494
	U2	0.33333	0.00000	0.63100
	U3	0.00000	0.50000	0.55996
	U4	0.66667	0.00000	0.50000
	U5	0.33333	0.50000	0.42895
	U6	0.00000	0.00000	0.39502
	O1	0.66667	0.50000	0.69695
end
task band energy

#       (211) gamma-uranium surface with surface displacements:	43.40%	-18.50%	and H displacement of	1.000	Å
geometry	center	noautosym	noautoz	print
	system	crystal
	lat_a	2.97913
	lat_b	4.86259
	lat_c	23.42762
	alpha	90.0d0
	beta	90.0d0
	gamma	90.0d0
	end
	U1	0.66667	0.50000	0.66494
	U2	0.33333	0.00000	0.63100
	U3	0.00000	0.50000	0.55996
	U4	0.66667	0.00000	0.50000
	U5	0.33333	0.50000	0.42895
	U6	0.00000	0.00000	0.39502
	O1	0.66667	0.50000	0.70762
end
task band energy

#       (211) gamma-uranium surface with surface displacements:	43.40%	-18.50%	and H displacement of	1.250	Å
geometry	center	noautosym	noautoz	print
	system	crystal
	lat_a	2.97913
	lat_b	4.86259
	lat_c	23.42762
	alpha	90.0d0
	beta	90.0d0
	gamma	90.0d0
	end
	U1	0.66667	0.50000	0.66494
	U2	0.33333	0.00000	0.63100
	U3	0.00000	0.50000	0.55996
	U4	0.66667	0.00000	0.50000
	U5	0.33333	0.50000	0.42895
	U6	0.00000	0.00000	0.39502
	O1	0.66667	0.50000	0.71829
end
task band energy

#       (211) gamma-uranium surface with surface displacements:	43.40%	-18.50%	and H displacement of	1.500	Å
geometry	center	noautosym	noautoz	print
	system	crystal
	lat_a	2.97913
	lat_b	4.86259
	lat_c	23.42762
	alpha	90.0d0
	beta	90.0d0
	gamma	90.0d0
	end
	U1	0.66667	0.50000	0.66494
	U2	0.33333	0.00000	0.63100
	U3	0.00000	0.50000	0.55996
	U4	0.66667	0.00000	0.50000
	U5	0.33333	0.50000	0.42895
	U6	0.00000	0.00000	0.39502
	O1	0.66667	0.50000	0.72896
end
task band energy

#       (211) gamma-uranium surface with surface displacements:	43.40%	-18.50%	and H displacement of	1.750	Å
geometry	center	noautosym	noautoz	print
	system	crystal
	lat_a	2.97913
	lat_b	4.86259
	lat_c	23.42762
	alpha	90.0d0
	beta	90.0d0
	gamma	90.0d0
	end
	U1	0.66667	0.50000	0.66494
	U2	0.33333	0.00000	0.63100
	U3	0.00000	0.50000	0.55996
	U4	0.66667	0.00000	0.50000
	U5	0.33333	0.50000	0.42895
	U6	0.00000	0.00000	0.39502
	O1	0.66667	0.50000	0.73963
end
task band energy

#       (211) gamma-uranium surface with surface displacements:	43.40%	-18.50%	and H displacement of	2.000	Å
geometry	center	noautosym	noautoz	print
	system	crystal
	lat_a	2.97913
	lat_b	4.86259
	lat_c	23.42762
	alpha	90.0d0
	beta	90.0d0
	gamma	90.0d0
	end
	U1	0.66667	0.50000	0.66494
	U2	0.33333	0.00000	0.63100
	U3	0.00000	0.50000	0.55996
	U4	0.66667	0.00000	0.50000
	U5	0.33333	0.50000	0.42895
	U6	0.00000	0.00000	0.39502
	O1	0.66667	0.50000	0.75031
end
task band energy

#       (211) gamma-uranium surface with surface displacements:	43.40%	-18.50%	and H displacement of	7.500	Å
geometry	center	noautosym	noautoz	print
	system	crystal
	lat_a	2.97913
	lat_b	4.86259
	lat_c	23.42762
	alpha	90.0d0
	beta	90.0d0
	gamma	90.0d0
	end
	U1	0.66667	0.50000	0.66494
	U2	0.33333	0.00000	0.63100
	U3	0.00000	0.50000	0.55996
	U4	0.66667	0.00000	0.50000
	U5	0.33333	0.50000	0.42895
	U6	0.00000	0.00000	0.39502
	O1	0.66667	0.50000	0.98507
end
task band energy

# A.M.D.G.
================================================================================


                                         
                                         


             Northwest Computational Chemistry Package (NWChem) 6.1.1
             --------------------------------------------------------


                    Environmental Molecular Sciences Laboratory
                       Pacific Northwest National Laboratory
                                Richland, WA 99352

                              Copyright (c) 1994-2012
                       Pacific Northwest National Laboratory
                            Battelle Memorial Institute

             NWChem is an open-source computational chemistry package
                        distributed under the terms of the
                      Educational Community License (ECL) 2.0
             A copy of the license is included with this distribution
                              in the LICENSE.TXT file

                                  ACKNOWLEDGMENT
                                  --------------

            This software and its documentation were developed at the
            EMSL at Pacific Northwest National Laboratory, a multiprogram
            national laboratory, operated for the U.S. Department of Energy
            by Battelle under Contract Number DE-AC05-76RL01830. Support
            for this work was provided by the Department of Energy Office
            of Biological and Environmental Research, Office of Basic
            Energy Sciences, and the Office of Advanced Scientific Computing.


           Job information
           ---------------

    hostname        = taub508
    program         = /home/davis68/bin/nwchem-dev
    date            = Wed Feb 27 10:33:27 2013

    compiled        = Wed_Oct_03_09:41:00_2012
    source          = /home/davis68/nwchem/nwchem-src-2012-Aug-27/
    nwchem branch   = Development
    nwchem revision = 22805
    ga revision     = 10079
    input           = ./U6O-211-top.nw
    prefix          = U6O-211-top.
    data base       = ./perm/U6O-211-top.db
    status          = restart
    nproc           =      288
    time left       =     -1s



           Memory information
           ------------------

    heap     =   81920001 doubles =    625.0 Mbytes
    stack    =   81920001 doubles =    625.0 Mbytes
    global   =  163840000 doubles =   1250.0 Mbytes (distinct from heap & stack)
    total    =  327680002 doubles =   2500.0 Mbytes
    verify   = yes
    hardfail = no 


           Directory information
           ---------------------

  0 permanent = ./perm
  0 scratch   = ./scratch


           Previous task information
           -------------------------

    Theory    = band                            
    Operation = energy                        
    Status    = fail                          
    Qmmm      = F
    Ignore    = F


           Geometries in the database
           --------------------------

       Name                              Natoms  Last Modified
       --------------------------------  ------  ------------------------
    1  geometry                               7  Wed Feb 27 10:24:06 2013  

  The geometry named "geometry" is the default for restart



           Basis sets in the database
           --------------------------

  There are no basis sets in the database



                                NWChem Input Module
                                -------------------


                          Gamma-uranium (211) adsorption
                          ------------------------------

  !!!!!!!!!  geom_3d NEEDS TESTING !!!!!!!!!! 


                             Geometry "geometry" -> ""
                             -------------------------

 Output coordinates in angstroms (scale by  1.889725989 to convert to a.u.)

  No.       Tag          Charge          X              Y              Z
 ---- ---------------- ---------- -------------- -------------- --------------
    1 U1                  92.0000     1.98609660     2.43129500    15.57796164
    2 U2                  92.0000     0.99303340     0.00000000    14.78282822
    3 U3                  92.0000     0.00000000     2.43129500    13.11853010
    4 U4                  92.0000     1.98609660     0.00000000    11.71381000
    5 U5                  92.0000     0.99303340     2.43129500    10.04927760
    6 U6                  92.0000     0.00000000     0.00000000     9.25437845

      Lattice Parameters 
      ------------------ 

      lattice vectors in angstroms (scale by  1.889725989 to convert to a.u.)

      a1=<   2.979   0.000   0.000 >
      a2=<   0.000   4.863   0.000 >
      a3=<   0.000   0.000  23.428 >
      a=       2.979 b=      4.863 c=      23.428
      alpha=  90.000 beta=  90.000 gamma=  90.000
      omega=   339.4

      reciprocal lattice vectors in a.u.

      b1=<   1.116   0.000  -0.000 >
      b2=<  -0.000   0.684  -0.000 >
      b3=<   0.000   0.000   0.142 >

      Atomic Mass 
      ----------- 

      U1               238.050800
      U2               238.050800
      U3               238.050800
      U4               238.050800
      U5               238.050800
      U6               238.050800


 ==============================================================================
                                internuclear distances
 ------------------------------------------------------------------------------
       center one      |      center two      | atomic units |  angstroms
 ------------------------------------------------------------------------------
    2 U2               |   1 U1               |     5.18543  |     2.74401
    3 U3               |   1 U1               |     5.97386  |     3.16123
    3 U3               |   2 U2               |     5.87556  |     3.10921
    4 U4               |   2 U2               |     6.09566  |     3.22569
    4 U4               |   3 U3               |     6.49940  |     3.43933
    5 U5               |   3 U3               |     6.09607  |     3.22590
    5 U5               |   4 U4               |     5.87581  |     3.10935
    6 U6               |   4 U4               |     5.97386  |     3.16123
    6 U6               |   5 U5               |     5.18528  |     2.74393
 ------------------------------------------------------------------------------
                         number of included internuclear distances:          9
 ==============================================================================



 ==============================================================================
                                 internuclear angles
 ------------------------------------------------------------------------------
        center 1       |       center 2       |       center 3       |  degrees
 ------------------------------------------------------------------------------
    1 U1               |   2 U2               |   3 U3               |    65.03
    1 U1               |   2 U2               |   3 U3               |    65.03
    1 U1               |   2 U2               |   4 U4               |    99.46
    3 U3               |   2 U2               |   4 U4               |    65.74
    3 U3               |   2 U2               |   1 U1               |    65.03
    1 U1               |   3 U3               |   4 U4               |    87.42
    1 U1               |   3 U3               |   5 U5               |   123.15
    3 U3               |   2 U2               |   4 U4               |    65.74
    2 U2               |   3 U3               |   5 U5               |   114.27
    3 U3               |   5 U5               |   4 U4               |    65.73
    4 U4               |   2 U2               |   3 U3               |    65.74
    2 U2               |   4 U4               |   5 U5               |   114.27
    2 U2               |   4 U4               |   6 U6               |   123.15
    4 U4               |   5 U5               |   3 U3               |    65.73
    3 U3               |   4 U4               |   6 U6               |    87.42
    4 U4               |   5 U5               |   6 U6               |    65.03
    3 U3               |   5 U5               |   4 U4               |    65.73
    3 U3               |   5 U5               |   6 U6               |    99.45
    4 U4               |   5 U5               |   6 U6               |    65.03
    6 U6               |   5 U5               |   4 U4               |    65.03
 ------------------------------------------------------------------------------
                            number of included internuclear angles:         20
 ==============================================================================



          **********************************************************
          *                                                        *
          *                   NWPW BAND Calculation                *
          *                                                        *
          *  [(bundled Grassman/Stiefel manifold implementation)]  *
          *                                                        *
          *         [ NorthWest Chemistry implementation ]         *
          *                                                        *
          *                version #1.10   01/31/03                *
          *                                                        *
          *  A pseudopotential plane-wave band structure program   *
          *  with Brillouin zone sampling for optimizing crystals, *
          *  slabs, and polymers.  Developed by Eric J. Bylaska    *
          *  , Edoardo Apra, and Patrick Nichols.                  *
          *                                                        *
          **********************************************************
     >>>  JOB STARTED       AT Wed Feb 27 10:33:28 2013  <<<
          ================ input data ========================

 pseudopotential is not correctly formatted:U.cpp                                             

 Generated formatted_filename: ./perm/U.cpp
 - Spline fitted, nray=25701 -
 Error reading psi - bad grid
 nfft :                   60                   96                  480
 ngrid:                   36                   48                  320
 random planewave guess, initial psi:U6O-211-top.movecs                                
 -   spin, nalpha, nbeta:                    2                   43                   41

 input psi filename:./perm/U6O-211-top.movecs
Warning - Orthogonalization performed, spin,zone: 1   1
        - error(before)=  0.518192E+01 (  0.378181E+02)
        - error(after)=   0.142109E-13 (  0.430000E+02)
Warning - Orthogonalization performed, spin,zone: 2   1
        - error(before)=  0.494598E+01 (  0.360540E+02)
        - error(after)=   0.000000E+00 (  0.410000E+02)
Warning - Orthogonalization performed, spin,zone: 1   2
        - error(before)=  0.518311E+01 (  0.378169E+02)
        - error(after)=   0.142109E-13 (  0.430000E+02)
Warning - Orthogonalization performed, spin,zone: 2   2
        - error(before)=  0.494777E+01 (  0.360522E+02)
        - error(after)=   0.710543E-14 (  0.410000E+02)
Warning - Orthogonalization performed, spin,zone: 1   3
        - error(before)=  0.518306E+01 (  0.378169E+02)
        - error(after)=   0.000000E+00 (  0.430000E+02)
Warning - Orthogonalization performed, spin,zone: 2   3
        - error(before)=  0.494543E+01 (  0.360546E+02)
        - error(after)=   0.710543E-14 (  0.410000E+02)
Warning - Orthogonalization performed, spin,zone: 1   4
        - error(before)=  0.518283E+01 (  0.378172E+02)
        - error(after)=   0.710543E-14 (  0.430000E+02)
Warning - Orthogonalization performed, spin,zone: 2   4
        - error(before)=  0.494711E+01 (  0.360529E+02)
        - error(after)=   0.000000E+00 (  0.410000E+02)
Warning - Orthogonalization performed, spin,zone: 1   5
        - error(before)=  0.518175E+01 (  0.378182E+02)
        - error(after)=   0.000000E+00 (  0.430000E+02)
Warning - Orthogonalization performed, spin,zone: 2   5
        - error(before)=  0.494297E+01 (  0.360570E+02)
        - error(after)=   0.142109E-13 (  0.410000E+02)
Warning - Orthogonalization performed, spin,zone: 1   6
        - error(before)=  0.518341E+01 (  0.378166E+02)
        - error(after)=   0.142109E-13 (  0.430000E+02)
Warning - Orthogonalization performed, spin,zone: 2   6
        - error(before)=  0.494443E+01 (  0.360556E+02)
        - error(after)=   0.142109E-13 (  0.410000E+02)
Warning - Orthogonalization performed, spin,zone: 1   7
        - error(before)=  0.518411E+01 (  0.378159E+02)
        - error(after)=   0.000000E+00 (  0.430000E+02)
Warning - Orthogonalization performed, spin,zone: 2   7
        - error(before)=  0.494757E+01 (  0.360524E+02)
        - error(after)=   0.710543E-14 (  0.410000E+02)
Warning - Orthogonalization performed, spin,zone: 1   8
        - error(before)=  0.518213E+01 (  0.378179E+02)
        - error(after)=   0.710543E-14 (  0.430000E+02)
Warning - Orthogonalization performed, spin,zone: 2   8
        - error(before)=  0.494441E+01 (  0.360556E+02)
        - error(after)=   0.710543E-14 (  0.410000E+02)

 number of processors used:             288
 processor grid           :  36 x   1 x   8
 parallel mapping         :     2d  hilbert

 options:
      boundary conditions  = periodic    (version3)
      electron spin        = unrestricted
      exchange-correlation = PBE96 (White and Bird) parameterization

 elements involved in the cluster:
      1: U     core charge:14.0  lmax=3
             comment    : Parameterized (J.Chem. Phys. vol 128, 124507 (2008)) Troullier-Martins psp
             pseudpotential type            :   0
             highest angular component      :   3
             local potential used           :   0
             number of non-local projections:  15
             cutoff =   1.421   1.602   2.400   1.250

 total charge:   0.000

 atomic composition:
     U   :  6

 number of electrons: spin up=   43.00  spin down=   41.00 (fourier space)
 number of orbitals:  spin up=      43  spin down=      41 (fourier space)

 supercell:
      lattice:    a1=<   5.630   0.000   0.000 >
                  a2=<   0.000   9.189   0.000 >
                  a3=<   0.000   0.000  44.272 >
      reciprocal: b1=<   1.116   0.000  -0.000 >
                  b2=<  -0.000   0.684  -0.000 >
                  b3=<   0.000   0.000   0.142 >

      lattice:    a=   5.630    b=   9.189     c=  44.272
              alpha=  90.000 beta=  90.000 gamma=  90.000
      volume :     2290.2
      ewald summation: cut radius=    3.00  and  8
                        madelung=-3.07590645

 brillouin zone:
      number of zone points:     8
      weight=   0.125  ks=<   0.375   0.375   0.000 >, k=<   0.419   0.256  -0.000>
      weight=   0.125  ks=<   0.125   0.375   0.000 >, k=<   0.140   0.256  -0.000>
      weight=   0.125  ks=<  -0.125   0.375   0.000 >, k=<  -0.140   0.256  -0.000>
      weight=   0.125  ks=<   0.375  -0.375   0.000 >, k=<   0.419  -0.256  -0.000>
      weight=   0.125  ks=<   0.375   0.125   0.000 >, k=<   0.419   0.085  -0.000>
      weight=   0.125  ks=<   0.125   0.125   0.000 >, k=<   0.140   0.085  -0.000>
      weight=   0.125  ks=<   0.125  -0.125   0.000 >, k=<   0.140  -0.085  -0.000>
      weight=   0.125  ks=<   0.375  -0.125   0.000 >, k=<   0.419  -0.085  -0.000>

 computational grids:
      density     cutoff=134.654  fft=  36x  48x 320(   170825 waves     4745 per task)
      wavefnc   1 cutoff= 90.000  fft=  36x  48x 320(    93406 waves     2594 per task)
      wavefnc   2 cutoff= 90.000  fft=  36x  48x 320(    93331 waves     2592 per task)
      wavefnc   3 cutoff= 90.000  fft=  36x  48x 320(    93331 waves     2592 per task)
      wavefnc   4 cutoff= 90.000  fft=  36x  48x 320(    93406 waves     2594 per task)
      wavefnc   5 cutoff= 90.000  fft=  36x  48x 320(    93512 waves     2597 per task)
      wavefnc   6 cutoff= 90.000  fft=  36x  48x 320(    93355 waves     2593 per task)
      wavefnc   7 cutoff= 90.000  fft=  36x  48x 320(    93355 waves     2593 per task)
      wavefnc   8 cutoff= 90.000  fft=  36x  48x 320(    93512 waves     2597 per task)

 technical parameters:
      time step=      5.80     ficticious mass=  400000.0
      tolerance=.100E-06 (energy)   0.100E-06 (density)
      maximum iterations =      3000 (   10 inner    300 outer )



= energy calculation =


          ======== bundled Grassmann lmbfgs iteration ========
     >>>  ITERATION STARTED AT Wed Feb 27 10:37:51 2013  <<<
    iter.           Energy         DeltaE       DeltaRho 
    ------------------------------------------------------
     -  10 steepest descent iterations performed
      10   -0.2867985951E+03   -0.32106E+01    0.74707E+01
     -  10 steepest descent iterations performed
      20   -0.3038843719E+03   -0.30409E+00    0.90919E-01
     -  10 steepest descent iterations performed
      30   -0.3059871659E+03   -0.11757E+00    0.22266E-01
     -  10 steepest descent iterations performed
      40   -0.3067988313E+03   -0.46404E-01    0.67865E-02
     -  10 steepest descent iterations performed
      50   -0.3071753681E+03   -0.22000E-01    0.42405E-02
     -  10 steepest descent iterations performed
      60   -0.3073804474E+03   -0.12617E-01    0.21485E-02
     -  10 steepest descent iterations performed
      70   -0.3075054208E+03   -0.78862E-02    0.18002E-02
      80   -0.3076699585E+03   -0.59150E-02    0.94212E-02
      90   -0.3077054857E+03   -0.45109E-02    0.78757E-03
     100   -0.3077516486E+03   -0.35919E-02    0.27318E-02
     110   -0.3077761711E+03   -0.16823E-02    0.84756E-03
     120   -0.3077975558E+03   -0.28199E-02    0.10246E-02
     -  10 steepest descent iterations performed
     130   -0.3078169223E+03   -0.97692E-03    0.17526E-03
     140   -0.3078346180E+03   -0.20429E-02    0.81523E-03
     -  10 steepest descent iterations performed
     150   -0.3078445044E+03   -0.60606E-03    0.17834E-03
     160   -0.3078525608E+03   -0.89905E-03    0.61887E-03
     -  10 steepest descent iterations performed
     170   -0.3078600202E+03   -0.35714E-03    0.14786E-03
     180   -0.3078649891E+03   -0.54494E-03    0.37518E-03
     -  10 steepest descent iterations performed
     190   -0.3078706232E+03   -0.36127E-03    0.17781E-03
     200   -0.3078744950E+03   -0.40180E-03    0.32536E-03
     -  10 steepest descent iterations performed
     210   -0.3078794075E+03   -0.25431E-03    0.14464E-03
     220   -0.3078826271E+03   -0.35395E-03    0.27887E-03
     -  10 steepest descent iterations performed
     230   -0.3078871152E+03   -0.30276E-03    0.16635E-03
     240   -0.3078902727E+03   -0.33416E-03    0.27601E-03
     -  10 steepest descent iterations performed
     250   -0.3078948694E+03   -0.24905E-03    0.14550E-03
     260   -0.3078979433E+03   -0.33615E-03    0.25651E-03
     -  10 steepest descent iterations performed
     270   -0.3079025698E+03   -0.31973E-03    0.17175E-03
     280   -0.3079057517E+03   -0.32676E-03    0.25792E-03
     -  10 steepest descent iterations performed
     290   -0.3079105059E+03   -0.26032E-03    0.15655E-03
     300   -0.3079135224E+03   -0.31283E-03    0.24813E-03
     -  10 steepest descent iterations performed
     310   -0.3079179822E+03   -0.30445E-03    0.17032E-03
     320   -0.3079207912E+03   -0.26965E-03    0.23375E-03
     330   -0.3079335736E+03   -0.41008E-03    0.43932E-02
     -  10 steepest descent iterations performed
     340   -0.3079384617E+03   -0.29939E-03    0.20531E-03
     350   -0.3079402792E+03   -0.24330E-03    0.13346E-03
     360   -0.3079436786E+03   -0.14467E-03    0.74360E-03
     370   -0.3079463248E+03   -0.20008E-03    0.62843E-03
     -  10 steepest descent iterations performed
     380   -0.3079490199E+03   -0.28518E-03    0.67348E-04
     -  10 steepest descent iterations performed
     390   -0.3079503000E+03   -0.73353E-04    0.36594E-04
     400   -0.3079523948E+03   -0.19279E-03    0.53250E-03
     -  10 steepest descent iterations performed
     410   -0.3079538390E+03   -0.92710E-04    0.36738E-04
     420   -0.3079546199E+03   -0.95878E-04    0.97037E-04
     -  10 steepest descent iterations performed
     430   -0.3079555166E+03   -0.46787E-04    0.43397E-04
     440   -0.3079562327E+03   -0.77571E-04    0.13537E-03
     -  10 steepest descent iterations performed
     450   -0.3079571833E+03   -0.62341E-04    0.35478E-04
     460   -0.3079576469E+03   -0.55850E-04    0.64034E-04
     470   -0.3079610061E+03   -0.26003E-03    0.44117E-02
     -  10 steepest descent iterations performed
     480   -0.3079624127E+03   -0.49454E-04    0.13503E-04
     490   -0.3079626828E+03   -0.19479E-04    0.10627E-04
     500   -0.3079630935E+03   -0.45339E-04    0.85080E-04
     -  10 steepest descent iterations performed
     510   -0.3079634458E+03   -0.22647E-04    0.12515E-04
     520   -0.3079636507E+03   -0.24091E-04    0.33699E-04
     -  10 steepest descent iterations performed
     530   -0.3079638997E+03   -0.14699E-04    0.13343E-04
     540   -0.3079640851E+03   -0.19243E-04    0.37069E-04
     -  10 steepest descent iterations performed
     550   -0.3079643330E+03   -0.18897E-04    0.11752E-04
     560   -0.3079644544E+03   -0.13109E-04    0.17971E-04
     570   -0.3079652357E+03   -0.82336E-04    0.10840E-02
     -  10 steepest descent iterations performed
     580   -0.3079657061E+03   -0.11522E-04    0.32163E-05
     590   -0.3079657749E+03   -0.58932E-05    0.23863E-05
     600   -0.3079658430E+03   -0.49521E-05    0.92395E-05
     610   -0.3079659920E+03   -0.23306E-04    0.91666E-04
     -  10 steepest descent iterations performed
     620   -0.3079661334E+03   -0.69028E-05    0.22002E-05
     630   -0.3079661878E+03   -0.44716E-05    0.52669E-05
     640   -0.3079662443E+03   -0.56483E-05    0.14854E-04
     -  10 steepest descent iterations performed
     650   -0.3079663165E+03   -0.54065E-05    0.36977E-05
     660   -0.3079663595E+03   -0.37316E-05    0.63684E-05
     670   -0.3079664381E+03   -0.96715E-05    0.44844E-04
     -  10 steepest descent iterations performed
     680   -0.3079665265E+03   -0.43469E-05    0.18444E-05
     690   -0.3079665645E+03   -0.39769E-05    0.42040E-05