----------------------------------------
Begin Torque Prologue (Fri Mar  8 13:02:06 2013)
Job ID:           384274.taubm1.campuscluster.illinois.edu
Username:         davis68
Group:            npre_rizwan
Job Name:         U6O2-211-perpbrg
Limits:           ncpus=1,neednodes=24:ppn=12,nodes=24:ppn=12,walltime=16:00:00
Job Queue:        cse
Account:          NPRE
Nodes:            taub444 taub445 taub449 taub450 taub457 taub458 taub465 taub468 taub469 taub470 taub471 taub472 taub476 taub477 taub481 taub489 taub490 taub491 taub493 taub494 taub498 taub502 taub510 taub511
End Torque Prologue
----------------------------------------
 argument  1 = ./U6O2-211-perpbrg.nw



============================== echo of input deck ==============================
title "Gamma-uranium (211) adsorption"
echo

permanent_dir ./perm
scratch_dir   ./scratch

start U6O2-211-perpbrg

memory 2500 mb

nwpw
  # Real-space discretization
  simulation_cell
    ngrid 36 48 210
  end

  # Spin multiplicity---quenched to 1 in the solid state
  mult 3

  # Band, k-point sampling, and parallelism
  monkhorst-pack 4 4 1
  np_dimensions 8 12 8
  mapping 2

  # Periodicity considerations
  ewald_rcut 3.0
  ewald_ncut 8

  # Simulation parameters
  #restricted    # DFT||ODFT||RESTRICTED||UNRESTRICTED
  xc pbe96
  cutoff 90.0
  loop 10 300
  #tolerances 1.0e-6 1.0e-6
end
set nwpw:minimizer      2
set nwpw:lcao_skip      .true.
set nwpw:kbpp_ray       .true.
set nwpw:kbpp_filter    .true.

## Optimization ##
driver
  #clear                # Deletes all restart data
  loose               # Specify loose, default, or tight convergence
  xyz U6O2     # Output XYZ file of geometry at each stage
  maxiter 40
end
set driver:linopt 0
set nwpw:cif_filename U6O2.opt
set nwpw:psi_nolattice .true.

#       (211) gamma-uranium surface with surface displacements:	43.40%	-18.50%	and H displacement of	-0.500	Å
geometry	center	noautosym	noautoz	print
	system	crystal
	lat_a	2.97913
	lat_b	4.86259
	lat_c	20.42762
	alpha	90.0d0
	beta	90.0d0
	gamma	90.0d0
	end
	U1	0.66667	0.50000	0.68916
	U2	0.33333	0.00000	0.65024
	U3	0.00000	0.50000	0.56876
	U4	0.66667	0.00000	0.50000
	U5	0.33333	0.50000	0.41852
	U6	0.00000	0.00000	0.37960
	O1	0.20308	0.00000	0.66468
	O2	0.79692	0.00000	0.66468
end
#task band energy

nwpw
  simulation_cell
    ngrid 64 96 420
  end
end

#O2 (211) perp-brg
#       (211) gamma-uranium surface with surface displacements:	43.40%	-18.50%	and H displacement of	-0.500	Å
geometry	center	noautosym	noautoz	print
	system	crystal
	lat_a	2.97913
	lat_b	4.86259
	lat_c	20.42762
	alpha	90.0d0
	beta	90.0d0
	gamma	90.0d0
	end
	U1	0.66667	0.50000	0.68916
	U2	0.33333	0.00000	0.65024
	U3	0.00000	0.50000	0.56876
	U4	0.66667	0.00000	0.50000
	U5	0.33333	0.50000	0.41852
	U6	0.00000	0.00000	0.37960
	O1	0.20308	0.00000	0.66468
	O2	0.79692	0.00000	0.66468
end
#task band energy

#       (211) gamma-uranium surface with surface displacements:	43.40%	-18.50%	and H displacement of	-0.250	Å
geometry	center	noautosym	noautoz	print
	system	crystal
	lat_a	2.97913
	lat_b	4.86259
	lat_c	20.42762
	alpha	90.0d0
	beta	90.0d0
	gamma	90.0d0
	end
	U1	0.66667	0.50000	0.68916
	U2	0.33333	0.00000	0.65024
	U3	0.00000	0.50000	0.56876
	U4	0.66667	0.00000	0.50000
	U5	0.33333	0.50000	0.41852
	U6	0.00000	0.00000	0.37960
	O1	0.20308	0.00000	0.67692
	O2	0.79692	0.00000	0.67692
end
#task band energy

#       (211) gamma-uranium surface with surface displacements:	43.40%	-18.50%	and H displacement of	0.000	Å
geometry	center	noautosym	noautoz	print
	system	crystal
	lat_a	2.97913
	lat_b	4.86259
	lat_c	20.42762
	alpha	90.0d0
	beta	90.0d0
	gamma	90.0d0
	end
	U1	0.66667	0.50000	0.68916
	U2	0.33333	0.00000	0.65024
	U3	0.00000	0.50000	0.56876
	U4	0.66667	0.00000	0.50000
	U5	0.33333	0.50000	0.41852
	U6	0.00000	0.00000	0.37960
	O1	0.20308	0.00000	0.68916
	O2	0.79692	0.00000	0.68916
end
#task band energy

#       (211) gamma-uranium surface with surface displacements:	43.40%	-18.50%	and H displacement of	0.250	Å
geometry	center	noautosym	noautoz	print
	system	crystal
	lat_a	2.97913
	lat_b	4.86259
	lat_c	20.42762
	alpha	90.0d0
	beta	90.0d0
	gamma	90.0d0
	end
	U1	0.66667	0.50000	0.68916
	U2	0.33333	0.00000	0.65024
	U3	0.00000	0.50000	0.56876
	U4	0.66667	0.00000	0.50000
	U5	0.33333	0.50000	0.41852
	U6	0.00000	0.00000	0.37960
	O1	0.20308	0.00000	0.70140
	O2	0.79692	0.00000	0.70140
end
#task band energy

#       (211) gamma-uranium surface with surface displacements:	43.40%	-18.50%	and H displacement of	0.500	Å
geometry	center	noautosym	noautoz	print
	system	crystal
	lat_a	2.97913
	lat_b	4.86259
	lat_c	20.42762
	alpha	90.0d0
	beta	90.0d0
	gamma	90.0d0
	end
	U1	0.66667	0.50000	0.68916
	U2	0.33333	0.00000	0.65024
	U3	0.00000	0.50000	0.56876
	U4	0.66667	0.00000	0.50000
	U5	0.33333	0.50000	0.41852
	U6	0.00000	0.00000	0.37960
	O1	0.20308	0.00000	0.71364
	O2	0.79692	0.00000	0.71364
end
task band energy

#       (211) gamma-uranium surface with surface displacements:	43.40%	-18.50%	and H displacement of	0.750	Å
geometry	center	noautosym	noautoz	print
	system	crystal
	lat_a	2.97913
	lat_b	4.86259
	lat_c	20.42762
	alpha	90.0d0
	beta	90.0d0
	gamma	90.0d0
	end
	U1	0.66667	0.50000	0.68916
	U2	0.33333	0.00000	0.65024
	U3	0.00000	0.50000	0.56876
	U4	0.66667	0.00000	0.50000
	U5	0.33333	0.50000	0.41852
	U6	0.00000	0.00000	0.37960
	O1	0.20308	0.00000	0.72587
	O2	0.79692	0.00000	0.72587
end
task band energy

#       (211) gamma-uranium surface with surface displacements:	43.40%	-18.50%	and H displacement of	1.000	Å
geometry	center	noautosym	noautoz	print
	system	crystal
	lat_a	2.97913
	lat_b	4.86259
	lat_c	20.42762
	alpha	90.0d0
	beta	90.0d0
	gamma	90.0d0
	end
	U1	0.66667	0.50000	0.68916
	U2	0.33333	0.00000	0.65024
	U3	0.00000	0.50000	0.56876
	U4	0.66667	0.00000	0.50000
	U5	0.33333	0.50000	0.41852
	U6	0.00000	0.00000	0.37960
	O1	0.20308	0.00000	0.73811
	O2	0.79692	0.00000	0.73811
end
task band energy

#       (211) gamma-uranium surface with surface displacements:	43.40%	-18.50%	and H displacement of	1.250	Å
geometry	center	noautosym	noautoz	print
	system	crystal
	lat_a	2.97913
	lat_b	4.86259
	lat_c	20.42762
	alpha	90.0d0
	beta	90.0d0
	gamma	90.0d0
	end
	U1	0.66667	0.50000	0.68916
	U2	0.33333	0.00000	0.65024
	U3	0.00000	0.50000	0.56876
	U4	0.66667	0.00000	0.50000
	U5	0.33333	0.50000	0.41852
	U6	0.00000	0.00000	0.37960
	O1	0.20308	0.00000	0.75035
	O2	0.79692	0.00000	0.75035
end
task band energy

#       (211) gamma-uranium surface with surface displacements:	43.40%	-18.50%	and H displacement of	1.500	Å
geometry	center	noautosym	noautoz	print
	system	crystal
	lat_a	2.97913
	lat_b	4.86259
	lat_c	20.42762
	alpha	90.0d0
	beta	90.0d0
	gamma	90.0d0
	end
	U1	0.66667	0.50000	0.68916
	U2	0.33333	0.00000	0.65024
	U3	0.00000	0.50000	0.56876
	U4	0.66667	0.00000	0.50000
	U5	0.33333	0.50000	0.41852
	U6	0.00000	0.00000	0.37960
	O1	0.20308	0.00000	0.76259
	O2	0.79692	0.00000	0.76259
end
task band energy

#       (211) gamma-uranium surface with surface displacements:	43.40%	-18.50%	and H displacement of	1.500	Å
geometry	center	noautosym	noautoz	print
	system	crystal
	lat_a	2.97913
	lat_b	4.86259
	lat_c	20.42762
	alpha	90.0d0
	beta	90.0d0
	gamma	90.0d0
	end
	U1	0.66667	0.50000	0.68916
	U2	0.33333	0.00000	0.65024
	U3	0.00000	0.50000	0.56876
	U4	0.66667	0.00000	0.50000
	U5	0.33333	0.50000	0.41852
	U6	0.00000	0.00000	0.37960
	O1	0.20308	0.00000	0.76259
	O2	0.79692	0.00000	0.76259
end
task band energy

#       (211) gamma-uranium surface with surface displacements:	43.40%	-18.50%	and X displacement of	1.750	Å
geometry	center	noautosym	noautoz	print
	system	crystal
	lat_a	2.97913
	lat_b	4.86259
	lat_c	20.42762
	alpha	90.0d0
	beta	90.0d0
	gamma	90.0d0
	end
	U1	0.66667	0.50000	0.68916
	U2	0.33333	0.00000	0.65024
	U3	0.00000	0.50000	0.56876
	U4	0.66667	0.00000	0.50000
	U5	0.33333	0.50000	0.41852
	U6	0.00000	0.00000	0.37960
	O1	0.20308	0.00000	0.77483
	O2	0.79692	0.00000	0.77483
end
#task band energy

#       (211) gamma-uranium surface with surface displacements:	43.40%	-18.50%	and X displacement of	2.000	Å
geometry	center	noautosym	noautoz	print
	system	crystal
	lat_a	2.97913
	lat_b	4.86259
	lat_c	20.42762
	alpha	90.0d0
	beta	90.0d0
	gamma	90.0d0
	end
	U1	0.66667	0.50000	0.68916
	U2	0.33333	0.00000	0.65024
	U3	0.00000	0.50000	0.56876
	U4	0.66667	0.00000	0.50000
	U5	0.33333	0.50000	0.41852
	U6	0.00000	0.00000	0.37960
	O1	0.20308	0.00000	0.78707
	O2	0.79692	0.00000	0.78707
end
#task band energy

# A.M.D.G.
================================================================================


                                         
                                         


             Northwest Computational Chemistry Package (NWChem) 6.1.1
             --------------------------------------------------------


                    Environmental Molecular Sciences Laboratory
                       Pacific Northwest National Laboratory
                                Richland, WA 99352

                              Copyright (c) 1994-2012
                       Pacific Northwest National Laboratory
                            Battelle Memorial Institute

             NWChem is an open-source computational chemistry package
                        distributed under the terms of the
                      Educational Community License (ECL) 2.0
             A copy of the license is included with this distribution
                              in the LICENSE.TXT file

                                  ACKNOWLEDGMENT
                                  --------------

            This software and its documentation were developed at the
            EMSL at Pacific Northwest National Laboratory, a multiprogram
            national laboratory, operated for the U.S. Department of Energy
            by Battelle under Contract Number DE-AC05-76RL01830. Support
            for this work was provided by the Department of Energy Office
            of Biological and Environmental Research, Office of Basic
            Energy Sciences, and the Office of Advanced Scientific Computing.


           Job information
           ---------------

    hostname        = taub511
    program         = /home/davis68/bin/nwchem-dev
    date            = Fri Mar  8 13:02:10 2013

    compiled        = Wed_Oct_03_09:41:00_2012
    source          = /home/davis68/nwchem/nwchem-src-2012-Aug-27/
    nwchem branch   = Development
    nwchem revision = 22805
    ga revision     = 10079
    input           = ./U6O2-211-perpbrg.nw
    prefix          = U6O2-211-perpbrg.
    data base       = ./perm/U6O2-211-perpbrg.db
    status          = startup
    nproc           =      288
    time left       =     -1s



           Memory information
           ------------------

    heap     =   81920001 doubles =    625.0 Mbytes
    stack    =   81920001 doubles =    625.0 Mbytes
    global   =  163840000 doubles =   1250.0 Mbytes (distinct from heap & stack)
    total    =  327680002 doubles =   2500.0 Mbytes
    verify   = yes
    hardfail = no 


           Directory information
           ---------------------

  0 permanent = ./perm
  0 scratch   = ./scratch




                                NWChem Input Module
                                -------------------


                          Gamma-uranium (211) adsorption
                          ------------------------------

  !!!!!!!!!  geom_3d NEEDS TESTING !!!!!!!!!! 


                             Geometry "geometry" -> ""
                             -------------------------

 Output coordinates in angstroms (scale by  1.889725989 to convert to a.u.)

  No.       Tag          Charge          X              Y              Z
 ---- ---------------- ---------- -------------- -------------- --------------
    1 U1                  92.0000     1.98609660     2.43129500    14.07789860
    2 U2                  92.0000     0.99303340     0.00000000    13.28285563
    3 U3                  92.0000     0.00000000     2.43129500    11.61841315
    4 U4                  92.0000     1.98609660     0.00000000    10.21381000
    5 U5                  92.0000     0.99303340     2.43129500     8.54936752
    6 U6                  92.0000     0.00000000     0.00000000     7.75432455
    7 O1                   8.0000     0.60500172     0.00000000    13.57783046
    8 O2                   8.0000     2.37412828     0.00000000    13.57783046

      Lattice Parameters 
      ------------------ 

      lattice vectors in angstroms (scale by  1.889725989 to convert to a.u.)

      a1=<   2.979   0.000   0.000 >
      a2=<   0.000   4.863   0.000 >
      a3=<   0.000   0.000  20.428 >
      a=       2.979 b=      4.863 c=      20.428
      alpha=  90.000 beta=  90.000 gamma=  90.000
      omega=   295.9

      reciprocal lattice vectors in a.u.

      b1=<   1.116   0.000  -0.000 >
      b2=<  -0.000   0.684  -0.000 >
      b3=<   0.000   0.000   0.163 >

      Atomic Mass 
      ----------- 

      U1               238.050800
      U2               238.050800
      U3               238.050800
      U4               238.050800
      U5               238.050800
      U6               238.050800
      O1                15.994910
      O2                15.994910


 ==============================================================================
                                internuclear distances
 ------------------------------------------------------------------------------
       center one      |      center two      | atomic units |  angstroms
 ------------------------------------------------------------------------------
    2 U2               |   1 U1               |     5.18538  |     2.74399
    3 U3               |   1 U1               |     5.97394  |     3.16127
    3 U3               |   2 U2               |     5.87570  |     3.10929
    4 U4               |   2 U2               |     6.09571  |     3.22571
    4 U4               |   3 U3               |     6.49931  |     3.43929
    5 U5               |   3 U3               |     6.09569  |     3.22570
    5 U5               |   4 U4               |     5.87572  |     3.10930
    6 U6               |   4 U4               |     5.97394  |     3.16127
    6 U6               |   5 U5               |     5.18536  |     2.74398
    7 O1               |   1 U1               |     5.36785  |     2.84054
    7 O1               |   2 U2               |     0.92109  |     0.48742
    8 O2               |   1 U1               |     4.74763  |     2.51234
    8 O2               |   2 U2               |     2.66875  |     1.41224
 ------------------------------------------------------------------------------
                         number of included internuclear distances:         13
 ==============================================================================



 ==============================================================================
                                 internuclear angles
 ------------------------------------------------------------------------------
        center 1       |       center 2       |       center 3       |  degrees
 ------------------------------------------------------------------------------
    1 U1               |   2 U2               |   3 U3               |    65.03
    1 U1               |   2 U2               |   7 O1               |    96.47
    1 U1               |   8 O2               |   2 U2               |    83.72
    3 U3               |   1 U1               |   7 O1               |    63.74
    3 U3               |   1 U1               |   8 O2               |    86.69
    7 O1               |   1 U1               |   8 O2               |    37.98
    1 U1               |   2 U2               |   3 U3               |    65.03
    1 U1               |   2 U2               |   4 U4               |    99.45
    1 U1               |   2 U2               |   7 O1               |    96.47
    2 U2               |   8 O2               |   1 U1               |    83.72
    3 U3               |   2 U2               |   4 U4               |    65.73
    3 U3               |   2 U2               |   7 O1               |    94.00
    3 U3               |   2 U2               |   8 O2               |   115.10
    4 U4               |   2 U2               |   7 O1               |   145.17
    4 U4               |   2 U2               |   8 O2               |    84.13
    7 O1               |   2 U2               |   8 O2               |   130.70
    3 U3               |   2 U2               |   1 U1               |    65.03
    1 U1               |   3 U3               |   4 U4               |    87.42
    1 U1               |   3 U3               |   5 U5               |   123.15
    3 U3               |   2 U2               |   4 U4               |    65.73
    2 U2               |   3 U3               |   5 U5               |   114.27
    3 U3               |   5 U5               |   4 U4               |    65.73
    4 U4               |   2 U2               |   3 U3               |    65.73
    2 U2               |   4 U4               |   5 U5               |   114.27
    2 U2               |   4 U4               |   6 U6               |   123.15
    4 U4               |   5 U5               |   3 U3               |    65.73
    3 U3               |   4 U4               |   6 U6               |    87.42
    4 U4               |   5 U5               |   6 U6               |    65.03
    3 U3               |   5 U5               |   4 U4               |    65.73
    3 U3               |   5 U5               |   6 U6               |    99.45
    4 U4               |   5 U5               |   6 U6               |    65.03
    6 U6               |   5 U5               |   4 U4               |    65.03
    7 O1               |   2 U2               |   1 U1               |    96.47
    1 U1               |   8 O2               |   2 U2               |    83.72
 ------------------------------------------------------------------------------
                            number of included internuclear angles:         34
 ==============================================================================




  !!!!!!!!!  geom_3d NEEDS TESTING !!!!!!!!!! 


                         Geometry "geometry" -> "        "
                         ---------------------------------

 Output coordinates in angstroms (scale by  1.889725989 to convert to a.u.)

  No.       Tag          Charge          X              Y              Z
 ---- ---------------- ---------- -------------- -------------- --------------
    1 U1                  92.0000     1.98609660     2.43129500    14.07789860
    2 U2                  92.0000     0.99303340     0.00000000    13.28285563
    3 U3                  92.0000     0.00000000     2.43129500    11.61841315
    4 U4                  92.0000     1.98609660     0.00000000    10.21381000
    5 U5                  92.0000     0.99303340     2.43129500     8.54936752
    6 U6                  92.0000     0.00000000     0.00000000     7.75432455
    7 O1                   8.0000     0.60500172     0.00000000    13.57783046
    8 O2                   8.0000     2.37412828     0.00000000    13.57783046

      Lattice Parameters 
      ------------------ 

      lattice vectors in angstroms (scale by  1.889725989 to convert to a.u.)

      a1=<   2.979   0.000   0.000 >
      a2=<   0.000   4.863   0.000 >
      a3=<   0.000   0.000  20.428 >
      a=       2.979 b=      4.863 c=      20.428
      alpha=  90.000 beta=  90.000 gamma=  90.000
      omega=   295.9

      reciprocal lattice vectors in a.u.

      b1=<   1.116   0.000  -0.000 >
      b2=<  -0.000   0.684  -0.000 >
      b3=<   0.000   0.000   0.163 >

      Atomic Mass 
      ----------- 

      U1               238.050800
      U2               238.050800
      U3               238.050800
      U4               238.050800
      U5               238.050800
      U6               238.050800
      O1                15.994910
      O2                15.994910


 ==============================================================================
                                internuclear distances
 ------------------------------------------------------------------------------
       center one      |      center two      | atomic units |  angstroms
 ------------------------------------------------------------------------------
    2 U2               |   1 U1               |     5.18538  |     2.74399
    3 U3               |   1 U1               |     5.97394  |     3.16127
    3 U3               |   2 U2               |     5.87570  |     3.10929
    4 U4               |   2 U2               |     6.09571  |     3.22571
    4 U4               |   3 U3               |     6.49931  |     3.43929
    5 U5               |   3 U3               |     6.09569  |     3.22570
    5 U5               |   4 U4               |     5.87572  |     3.10930
    6 U6               |   4 U4               |     5.97394  |     3.16127
    6 U6               |   5 U5               |     5.18536  |     2.74398
    7 O1               |   1 U1               |     5.36785  |     2.84054
    7 O1               |   2 U2               |     0.92109  |     0.48742
    8 O2               |   1 U1               |     4.74763  |     2.51234
    8 O2               |   2 U2               |     2.66875  |     1.41224
 ------------------------------------------------------------------------------
                         number of included internuclear distances:         13
 ==============================================================================



 ==============================================================================
                                 internuclear angles
 ------------------------------------------------------------------------------
        center 1       |       center 2       |       center 3       |  degrees
 ------------------------------------------------------------------------------
    1 U1               |   2 U2               |   3 U3               |    65.03
    1 U1               |   2 U2               |   7 O1               |    96.47
    1 U1               |   8 O2               |   2 U2               |    83.72
    3 U3               |   1 U1               |   7 O1               |    63.74
    3 U3               |   1 U1               |   8 O2               |    86.69
    7 O1               |   1 U1               |   8 O2               |    37.98
    1 U1               |   2 U2               |   3 U3               |    65.03
    1 U1               |   2 U2               |   4 U4               |    99.45
    1 U1               |   2 U2               |   7 O1               |    96.47
    2 U2               |   8 O2               |   1 U1               |    83.72
    3 U3               |   2 U2               |   4 U4               |    65.73
    3 U3               |   2 U2               |   7 O1               |    94.00
    3 U3               |   2 U2               |   8 O2               |   115.10
    4 U4               |   2 U2               |   7 O1               |   145.17
    4 U4               |   2 U2               |   8 O2               |    84.13
    7 O1               |   2 U2               |   8 O2               |   130.70
    3 U3               |   2 U2               |   1 U1               |    65.03
    1 U1               |   3 U3               |   4 U4               |    87.42
    1 U1               |   3 U3               |   5 U5               |   123.15
    3 U3               |   2 U2               |   4 U4               |    65.73
    2 U2               |   3 U3               |   5 U5               |   114.27
    3 U3               |   5 U5               |   4 U4               |    65.73
    4 U4               |   2 U2               |   3 U3               |    65.73
    2 U2               |   4 U4               |   5 U5               |   114.27
    2 U2               |   4 U4               |   6 U6               |   123.15
    4 U4               |   5 U5               |   3 U3               |    65.73
    3 U3               |   4 U4               |   6 U6               |    87.42
    4 U4               |   5 U5               |   6 U6               |    65.03
    3 U3               |   5 U5               |   4 U4               |    65.73
    3 U3               |   5 U5               |   6 U6               |    99.45
    4 U4               |   5 U5               |   6 U6               |    65.03
    6 U6               |   5 U5               |   4 U4               |    65.03
    7 O1               |   2 U2               |   1 U1               |    96.47
    1 U1               |   8 O2               |   2 U2               |    83.72
 ------------------------------------------------------------------------------
                            number of included internuclear angles:         34
 ==============================================================================




  !!!!!!!!!  geom_3d NEEDS TESTING !!!!!!!!!! 


                         Geometry "geometry" -> "        "
                         ---------------------------------

 Output coordinates in angstroms (scale by  1.889725989 to convert to a.u.)

  No.       Tag          Charge          X              Y              Z
 ---- ---------------- ---------- -------------- -------------- --------------
    1 U1                  92.0000     1.98609660     2.43129500    14.07789860
    2 U2                  92.0000     0.99303340     0.00000000    13.28285563
    3 U3                  92.0000     0.00000000     2.43129500    11.61841315
    4 U4                  92.0000     1.98609660     0.00000000    10.21381000
    5 U5                  92.0000     0.99303340     2.43129500     8.54936752
    6 U6                  92.0000     0.00000000     0.00000000     7.75432455
    7 O1                   8.0000     0.60500172     0.00000000    13.82786453
    8 O2                   8.0000     2.37412828     0.00000000    13.82786453

      Lattice Parameters 
      ------------------ 

      lattice vectors in angstroms (scale by  1.889725989 to convert to a.u.)

      a1=<   2.979   0.000   0.000 >
      a2=<   0.000   4.863   0.000 >
      a3=<   0.000   0.000  20.428 >
      a=       2.979 b=      4.863 c=      20.428
      alpha=  90.000 beta=  90.000 gamma=  90.000
      omega=   295.9

      reciprocal lattice vectors in a.u.

      b1=<   1.116   0.000  -0.000 >
      b2=<  -0.000   0.684  -0.000 >
      b3=<   0.000   0.000   0.163 >

      Atomic Mass 
      ----------- 

      U1               238.050800
      U2               238.050800
      U3               238.050800
      U4               238.050800
      U5               238.050800
      U6               238.050800
      O1                15.994910
      O2                15.994910


 ==============================================================================
                                internuclear distances
 ------------------------------------------------------------------------------
       center one      |      center two      | atomic units |  angstroms
 ------------------------------------------------------------------------------
    2 U2               |   1 U1               |     5.18538  |     2.74399
    3 U3               |   1 U1               |     5.97394  |     3.16127
    3 U3               |   2 U2               |     5.87570  |     3.10929
    4 U4               |   2 U2               |     6.09571  |     3.22571
    4 U4               |   3 U3               |     6.49931  |     3.43929
    5 U5               |   3 U3               |     6.09569  |     3.22570
    5 U5               |   4 U4               |     5.87572  |     3.10930
    6 U6               |   4 U4               |     5.97394  |     3.16127
    6 U6               |   5 U5               |     5.18536  |     2.74398
    7 O1               |   1 U1               |     5.30510  |     2.80734
    7 O1               |   2 U2               |     1.26429  |     0.66903
    8 O2               |   1 U1               |     4.67656  |     2.47473
    8 O2               |   2 U2               |     2.80575  |     1.48474
 ------------------------------------------------------------------------------
                         number of included internuclear distances:         13
 ==============================================================================



 ==============================================================================
                                 internuclear angles
 ------------------------------------------------------------------------------
        center 1       |       center 2       |       center 3       |  degrees
 ------------------------------------------------------------------------------
    1 U1               |   2 U2               |   3 U3               |    65.03
    1 U1               |   2 U2               |   7 O1               |    88.50
    1 U1               |   8 O2               |   2 U2               |    83.76
    3 U3               |   1 U1               |   7 O1               |    67.77
    3 U3               |   1 U1               |   8 O2               |    91.14
    7 O1               |   1 U1               |   8 O2               |    38.49
    1 U1               |   2 U2               |   3 U3               |    65.03
    1 U1               |   2 U2               |   4 U4               |    99.45
    1 U1               |   2 U2               |   7 O1               |    88.50
    2 U2               |   8 O2               |   1 U1               |    83.76
    3 U3               |   2 U2               |   4 U4               |    65.73
    3 U3               |   2 U2               |   7 O1               |   104.53
    3 U3               |   2 U2               |   8 O2               |   119.58
    4 U4               |   2 U2               |   7 O1               |   162.48
    4 U4               |   2 U2               |   8 O2               |    93.60
    7 O1               |   2 U2               |   8 O2               |   103.91