----------------------------------------
Begin Torque Prologue (Tue Mar 12 09:36:36 2013)
Job ID:           385625.taubm1.campuscluster.illinois.edu
Username:         davis68
Group:            npre_rizwan
Job Name:         U6O2-211-parctr
Limits:           ncpus=1,neednodes=24:ppn=12,nodes=24:ppn=12,walltime=04:00:00
Job Queue:        cse
Account:          NPRE
Nodes:            taub359 taub374 taub377 taub384 taub385 taub392 taub393 taub400 taub411 taub429 taub430 taub439 taub445 taub452 taub456 taub457 taub459 taub460 taub473 taub475 taub505 taub506 taub507 taub508
End Torque Prologue
----------------------------------------
 argument  1 = ./U6O2-211-parctr.nw



============================== echo of input deck ==============================
title "Gamma-uranium (211) adsorption"
echo

permanent_dir ./perm
scratch_dir   ./scratch

restart U6O2-211-parctr

memory 2500 mb

nwpw
  # Real-space discretization
  simulation_cell
    ngrid 36 48 210
  end

  # Spin multiplicity---quenched to 1 in the solid state
  mult 3

  # Band, k-point sampling, and parallelism
  monkhorst-pack 4 4 1
  np_dimensions 8 12 8
  mapping 2

  # Periodicity considerations
  ewald_rcut 3.0
  ewald_ncut 8

  # Simulation parameters
  #restricted    # DFT||ODFT||RESTRICTED||UNRESTRICTED
  xc pbe96
  cutoff 90.0
  loop 10 300
  tolerances 1.0e-6 1.0e-6
end
set nwpw:minimizer      2
set nwpw:lcao_skip      .true.
set nwpw:kbpp_ray       .true.
set nwpw:kbpp_filter    .true.

## Optimization ##
driver
  #clear                # Deletes all restart data
  loose               # Specify loose, default, or tight convergence
  xyz U6O2     # Output XYZ file of geometry at each stage
  maxiter 40
end
set driver:linopt 0
set nwpw:cif_filename U6O2.opt
set nwpw:psi_nolattice .true.

#       (211) gamma-uranium surface with surface displacements:	43.40%	-18.50%	and X displacement of	-0.500	Å
geometry	center	noautosym	noautoz	print
	system	crystal
	lat_a	2.97913
	lat_b	4.86259
	lat_c	20.42762
	alpha	90.0d0
	beta	90.0d0
	gamma	90.0d0
	end
	U1	0.66667	0.50000	0.68916
	U2	0.33333	0.00000	0.65024
	U3	0.00000	0.50000	0.56876
	U4	0.66667	0.00000	0.50000
	U5	0.33333	0.50000	0.41852
	U6	0.00000	0.00000	0.37960
	O1	0.16667	0.62442	0.66468
	O2	0.16667	0.37558	0.66468
end
#task band energy

nwpw
  simulation_cell
    ngrid 64 96 420
  end
end

#       (211) gamma-uranium surface with surface displacements:	43.40%	-18.50%	and X displacement of	1.750	Å
#par-ctr
geometry	center	noautosym	noautoz	print
	system	crystal
	lat_a	2.97913
	lat_b	4.86259
	lat_c	20.42762
	alpha	90.0d0
	beta	90.0d0
	gamma	90.0d0
	end
	U1	0.66667	0.50000	0.68916
	U2	0.33333	0.00000	0.65024
	U3	0.00000	0.50000	0.56876
	U4	0.66667	0.00000	0.50000
	U5	0.33333	0.50000	0.41852
	U6	0.00000	0.00000	0.37960
	O1	0.16667	0.62442	0.77483
	O2	0.16667	0.37558	0.77483
end
#task band energy

#       (211) gamma-uranium surface with surface displacements:	43.40%	-18.50%	and X displacement of	2.000	Å
#par-ctr
geometry	center	noautosym	noautoz	print
	system	crystal
	lat_a	2.97913
	lat_b	4.86259
	lat_c	20.42762
	alpha	90.0d0
	beta	90.0d0
	gamma	90.0d0
	end
	U1	0.66667	0.50000	0.68916
	U2	0.33333	0.00000	0.65024
	U3	0.00000	0.50000	0.56876
	U4	0.66667	0.00000	0.50000
	U5	0.33333	0.50000	0.41852
	U6	0.00000	0.00000	0.37960
	O1	0.16667	0.62442	0.78707
	O2	0.16667	0.37558	0.78707
end
task band energy

# A.M.D.G.
================================================================================


                                         
                                         


             Northwest Computational Chemistry Package (NWChem) 6.1.1
             --------------------------------------------------------


                    Environmental Molecular Sciences Laboratory
                       Pacific Northwest National Laboratory
                                Richland, WA 99352

                              Copyright (c) 1994-2012
                       Pacific Northwest National Laboratory
                            Battelle Memorial Institute

             NWChem is an open-source computational chemistry package
                        distributed under the terms of the
                      Educational Community License (ECL) 2.0
             A copy of the license is included with this distribution
                              in the LICENSE.TXT file

                                  ACKNOWLEDGMENT
                                  --------------

            This software and its documentation were developed at the
            EMSL at Pacific Northwest National Laboratory, a multiprogram
            national laboratory, operated for the U.S. Department of Energy
            by Battelle under Contract Number DE-AC05-76RL01830. Support
            for this work was provided by the Department of Energy Office
            of Biological and Environmental Research, Office of Basic
            Energy Sciences, and the Office of Advanced Scientific Computing.


           Job information
           ---------------

    hostname        = taub508
    program         = /home/davis68/bin/nwchem-dev
    date            = Tue Mar 12 09:37:30 2013

    compiled        = Wed_Oct_03_09:41:00_2012
    source          = /home/davis68/nwchem/nwchem-src-2012-Aug-27/
    nwchem branch   = Development
    nwchem revision = 22805
    ga revision     = 10079
    input           = ./U6O2-211-parctr.nw
    prefix          = U6O2-211-parctr.
    data base       = ./perm/U6O2-211-parctr.db
    status          = restart
    nproc           =      288
    time left       =     -1s



           Memory information
           ------------------

    heap     =   81920001 doubles =    625.0 Mbytes
    stack    =   81920001 doubles =    625.0 Mbytes
    global   =  163840000 doubles =   1250.0 Mbytes (distinct from heap & stack)
    total    =  327680002 doubles =   2500.0 Mbytes
    verify   = yes
    hardfail = no 


           Directory information
           ---------------------

  0 permanent = ./perm
  0 scratch   = ./scratch


           Previous task information
           -------------------------

    Theory    = band                            
    Operation = energy                        
    Status    = ok                            
    Qmmm      = F
    Ignore    = F


           Geometries in the database
           --------------------------

       Name                              Natoms  Last Modified
       --------------------------------  ------  ------------------------
    1  geometry                               8  Fri Mar  8 16:17:29 2013  

  The geometry named "geometry" is the default for restart



           Basis sets in the database
           --------------------------

  There are no basis sets in the database



                                NWChem Input Module
                                -------------------


                          Gamma-uranium (211) adsorption
                          ------------------------------

  !!!!!!!!!  geom_3d NEEDS TESTING !!!!!!!!!! 


                             Geometry "geometry" -> ""
                             -------------------------

 Output coordinates in angstroms (scale by  1.889725989 to convert to a.u.)

  No.       Tag          Charge          X              Y              Z
 ---- ---------------- ---------- -------------- -------------- --------------
    1 U1                  92.0000     1.98609660     2.43129500    14.07789860
    2 U2                  92.0000     0.99303340     0.00000000    13.28285563
    3 U3                  92.0000     0.00000000     2.43129500    11.61841315
    4 U4                  92.0000     1.98609660     0.00000000    10.21381000
    5 U5                  92.0000     0.99303340     2.43129500     8.54936752
    6 U6                  92.0000     0.00000000     0.00000000     7.75432455
    7 O1                   8.0000     0.49653160     3.03629845    13.57783046
    8 O2                   8.0000     0.49653160     1.82629155    13.57783046

      Lattice Parameters 
      ------------------ 

      lattice vectors in angstroms (scale by  1.889725989 to convert to a.u.)

      a1=<   2.979   0.000   0.000 >
      a2=<   0.000   4.863   0.000 >
      a3=<   0.000   0.000  20.428 >
      a=       2.979 b=      4.863 c=      20.428
      alpha=  90.000 beta=  90.000 gamma=  90.000
      omega=   295.9

      reciprocal lattice vectors in a.u.

      b1=<   1.116   0.000  -0.000 >
      b2=<  -0.000   0.684  -0.000 >
      b3=<   0.000   0.000   0.163 >

      Atomic Mass 
      ----------- 

      U1               238.050800
      U2               238.050800
      U3               238.050800
      U4               238.050800
      U5               238.050800
      U6               238.050800
      O1                15.994910
      O2                15.994910


 ==============================================================================
                                internuclear distances
 ------------------------------------------------------------------------------
       center one      |      center two      | atomic units |  angstroms
 ------------------------------------------------------------------------------
    2 U2               |   1 U1               |     5.18538  |     2.74399
    3 U3               |   1 U1               |     5.97394  |     3.16127
    3 U3               |   2 U2               |     5.87570  |     3.10929
    4 U4               |   2 U2               |     6.09571  |     3.22571
    4 U4               |   3 U3               |     6.49931  |     3.43929
    5 U5               |   3 U3               |     6.09569  |     3.22570
    5 U5               |   4 U4               |     5.87572  |     3.10930
    6 U6               |   4 U4               |     5.97394  |     3.16127
    6 U6               |   5 U5               |     5.18536  |     2.74398
    7 O1               |   1 U1               |     3.18176  |     1.68372
    7 O1               |   3 U3               |     3.98723  |     2.10995
    8 O2               |   1 U1               |     3.18176  |     1.68372
    8 O2               |   2 U2               |     3.61963  |     1.91543
    8 O2               |   3 U3               |     3.98723  |     2.10995
    8 O2               |   7 O1               |     2.28658  |     1.21001
 ------------------------------------------------------------------------------
                         number of included internuclear distances:         15
 ==============================================================================



 ==============================================================================
                                 internuclear angles
 ------------------------------------------------------------------------------
        center 1       |       center 2       |       center 3       |  degrees
 ------------------------------------------------------------------------------
    1 U1               |   2 U2               |   3 U3               |    65.03
    2 U2               |   1 U1               |   7 O1               |    84.96
    1 U1               |   8 O2               |   2 U2               |    99.15
    1 U1               |   7 O1               |   3 U3               |   112.39
    1 U1               |   8 O2               |   3 U3               |   112.39
    1 U1               |   7 O1               |   8 O2               |    68.94
    1 U1               |   2 U2               |   3 U3               |    65.03
    1 U1               |   2 U2               |   4 U4               |    99.45
    2 U2               |   8 O2               |   1 U1               |    99.15
    3 U3               |   2 U2               |   4 U4               |    65.73
    2 U2               |   8 O2               |   3 U3               |   101.03
    4 U4               |   2 U2               |   8 O2               |   103.08
    3 U3               |   2 U2               |   1 U1               |    65.03
    1 U1               |   3 U3               |   4 U4               |    87.42
    1 U1               |   3 U3               |   5 U5               |   123.15
    3 U3               |   7 O1               |   1 U1               |   112.39
    3 U3               |   8 O2               |   1 U1               |   112.39
    3 U3               |   2 U2               |   4 U4               |    65.73
    2 U2               |   3 U3               |   5 U5               |   114.27
    2 U2               |   3 U3               |   7 O1               |    69.63
    3 U3               |   8 O2               |   2 U2               |   101.03
    3 U3               |   5 U5               |   4 U4               |    65.73
    4 U4               |   3 U3               |   7 O1               |   116.49
    4 U4               |   3 U3               |   8 O2               |    92.33
    5 U5               |   3 U3               |   7 O1               |   144.20
    5 U5               |   3 U3               |   8 O2               |   144.20
    3 U3               |   8 O2               |   7 O1               |    73.34
    4 U4               |   2 U2               |   3 U3               |    65.73
    2 U2               |   4 U4               |   5 U5               |   114.27
    2 U2               |   4 U4               |   6 U6               |   123.15
    4 U4               |   5 U5               |   3 U3               |    65.73
    3 U3               |   4 U4               |   6 U6               |    87.42
    4 U4               |   5 U5               |   6 U6               |    65.03
    3 U3               |   5 U5               |   4 U4               |    65.73
    3 U3               |   5 U5               |   6 U6               |    99.45
    4 U4               |   5 U5               |   6 U6               |    65.03
    6 U6               |   5 U5               |   4 U4               |    65.03
    1 U1               |   7 O1               |   3 U3               |   112.39
    1 U1               |   7 O1               |   8 O2               |    68.94
    7 O1               |   8 O2               |   3 U3               |    73.34
    1 U1               |   8 O2               |   2 U2               |    99.15
    1 U1               |   8 O2               |   3 U3               |   112.39
    8 O2               |   7 O1               |   1 U1               |    68.94
    2 U2               |   8 O2               |   3 U3               |   101.03
    2 U2               |   8 O2               |   7 O1               |   162.45
    3 U3               |   8 O2               |   7 O1               |    73.34
 ------------------------------------------------------------------------------
                            number of included internuclear angles:         46
 ==============================================================================




  !!!!!!!!!  geom_3d NEEDS TESTING !!!!!!!!!! 


                         Geometry "geometry" -> "        "
                         ---------------------------------

 Output coordinates in angstroms (scale by  1.889725989 to convert to a.u.)

  No.       Tag          Charge          X              Y              Z
 ---- ---------------- ---------- -------------- -------------- --------------
    1 U1                  92.0000     1.98609660     2.43129500    14.07789860
    2 U2                  92.0000     0.99303340     0.00000000    13.28285563
    3 U3                  92.0000     0.00000000     2.43129500    11.61841315
    4 U4                  92.0000     1.98609660     0.00000000    10.21381000
    5 U5                  92.0000     0.99303340     2.43129500     8.54936752
    6 U6                  92.0000     0.00000000     0.00000000     7.75432455
    7 O1                   8.0000     0.49653160     3.03629845    15.82793280
    8 O2                   8.0000     0.49653160     1.82629155    15.82793280

      Lattice Parameters 
      ------------------ 

      lattice vectors in angstroms (scale by  1.889725989 to convert to a.u.)

      a1=<   2.979   0.000   0.000 >
      a2=<   0.000   4.863   0.000 >
      a3=<   0.000   0.000  20.428 >
      a=       2.979 b=      4.863 c=      20.428
      alpha=  90.000 beta=  90.000 gamma=  90.000
      omega=   295.9

      reciprocal lattice vectors in a.u.

      b1=<   1.116   0.000  -0.000 >
      b2=<  -0.000   0.684  -0.000 >
      b3=<   0.000   0.000   0.163 >

      Atomic Mass 
      ----------- 

      U1               238.050800
      U2               238.050800
      U3               238.050800
      U4               238.050800
      U5               238.050800
      U6               238.050800
      O1                15.994910
      O2                15.994910


 ==============================================================================
                                internuclear distances
 ------------------------------------------------------------------------------
       center one      |      center two      | atomic units |  angstroms
 ------------------------------------------------------------------------------
    2 U2               |   1 U1               |     5.18538  |     2.74399
    3 U3               |   1 U1               |     5.97394  |     3.16127
    3 U3               |   2 U2               |     5.87570  |     3.10929
    4 U4               |   2 U2               |     6.09571  |     3.22571
    4 U4               |   3 U3               |     6.49931  |     3.43929
    5 U5               |   3 U3               |     6.09569  |     3.22570
    5 U5               |   4 U4               |     5.87572  |     3.10930
    6 U6               |   4 U4               |     5.97394  |     3.16127
    6 U6               |   5 U5               |     5.18536  |     2.74398
    7 O1               |   1 U1               |     4.49081  |     2.37644
    8 O2               |   1 U1               |     4.49081  |     2.37644
    8 O2               |   7 O1               |     2.28658  |     1.21001
 ------------------------------------------------------------------------------
                         number of included internuclear distances:         12
 ==============================================================================



 ==============================================================================
                                 internuclear angles
 ------------------------------------------------------------------------------
        center 1       |       center 2       |       center 3       |  degrees
 ------------------------------------------------------------------------------
    1 U1               |   2 U2               |   3 U3               |    65.03
    2 U2               |   1 U1               |   7 O1               |   102.25
    2 U2               |   1 U1               |   8 O2               |    76.17
    3 U3               |   1 U1               |   7 O1               |   100.32
    3 U3               |   1 U1               |   8 O2               |   100.32
    1 U1               |   8 O2               |   7 O1               |    75.25
    1 U1               |   2 U2               |   3 U3               |    65.03
    1 U1               |   2 U2               |   4 U4               |    99.45
    3 U3               |   2 U2               |   4 U4               |    65.73
    3 U3               |   2 U2               |   1 U1               |    65.03
    1 U1               |   3 U3               |   4 U4               |    87.42
    1 U1               |   3 U3               |   5 U5               |   123.15
    3 U3               |   2 U2               |   4 U4               |    65.73
    2 U2               |   3 U3               |   5 U5               |   114.27
    3 U3               |   5 U5               |   4 U4               |    65.73
    4 U4               |   2 U2               |   3 U3               |    65.73
    2 U2               |   4 U4               |   5 U5               |   114.27
    2 U2               |   4 U4               |   6 U6               |   123.15
    4 U4               |   5 U5               |   3 U3               |    65.73
    3 U3               |   4 U4               |   6 U6               |    87.42
    4 U4               |   5 U5               |   6 U6               |    65.03
    3 U3               |   5 U5               |   4 U4               |    65.73
    3 U3               |   5 U5               |   6 U6               |    99.45
    4 U4               |   5 U5               |   6 U6               |    65.03
    6 U6               |   5 U5               |   4 U4               |    65.03
    7 O1               |   8 O2               |   1 U1               |    75.25
    1 U1               |   8 O2               |   7 O1               |    75.25
 ------------------------------------------------------------------------------
                            number of included internuclear angles:         27
 ==============================================================================




  !!!!!!!!!  geom_3d NEEDS TESTING !!!!!!!!!! 


                         Geometry "geometry" -> "        "
                         ---------------------------------

 Output coordinates in angstroms (scale by  1.889725989 to convert to a.u.)

  No.       Tag          Charge          X              Y              Z
 ---- ---------------- ---------- -------------- -------------- --------------
    1 U1                  92.0000     1.98609660     2.43129500    14.07789860
    2 U2                  92.0000     0.99303340     0.00000000    13.28285563
    3 U3                  92.0000     0.00000000     2.43129500    11.61841315
    4 U4                  92.0000     1.98609660     0.00000000    10.21381000
    5 U5                  92.0000     0.99303340     2.43129500     8.54936752
    6 U6                  92.0000     0.00000000     0.00000000     7.75432455
    7 O1                   8.0000     0.49653160     3.03629845    16.07796687
    8 O2                   8.0000     0.49653160     1.82629155    16.07796687

      Lattice Parameters 
      ------------------ 

      lattice vectors in angstroms (scale by  1.889725989 to convert to a.u.)

      a1=<   2.979   0.000   0.000 >
      a2=<   0.000   4.863   0.000 >
      a3=<   0.000   0.000  20.428 >
      a=       2.979 b=      4.863 c=      20.428
      alpha=  90.000 beta=  90.000 gamma=  90.000
      omega=   295.9

      reciprocal lattice vectors in a.u.

      b1=<   1.116   0.000  -0.000 >
      b2=<  -0.000   0.684  -0.000 >
      b3=<   0.000   0.000   0.163 >

      Atomic Mass 
      ----------- 

      U1               238.050800
      U2               238.050800
      U3               238.050800
      U4               238.050800
      U5               238.050800
      U6               238.050800
      O1                15.994910
      O2                15.994910


 ==============================================================================
                                internuclear distances
 ------------------------------------------------------------------------------
       center one      |      center two      | atomic units |  angstroms
 ------------------------------------------------------------------------------
    2 U2               |   1 U1               |     5.18538  |     2.74399
    3 U3               |   1 U1               |     5.97394  |     3.16127
    3 U3               |   2 U2               |     5.87570  |     3.10929
    4 U4               |   2 U2               |     6.09571  |     3.22571
    4 U4               |   3 U3               |     6.49931  |     3.43929
    5 U5               |   3 U3               |     6.09569  |     3.22570
    5 U5               |   4 U4               |     5.87572  |     3.10930
    6 U6               |   4 U4               |     5.97394  |     3.16127
    6 U6               |   5 U5               |     5.18536  |     2.74398
    7 O1               |   1 U1               |     4.84931  |     2.56615
    8 O2               |   1 U1               |     4.84931  |     2.56615
    8 O2               |   7 O1               |     2.28658  |     1.21001
 ------------------------------------------------------------------------------
                         number of included internuclear distances:         12
 ==============================================================================



 ==============================================================================
                                 internuclear angles
 ------------------------------------------------------------------------------
        center 1       |       center 2       |       center 3       |  degrees
 ------------------------------------------------------------------------------
    1 U1               |   2 U2               |   3 U3               |    65.03
    2 U2               |   1 U1               |   7 O1               |   102.98
    2 U2               |   1 U1               |   8 O2               |    78.86
    3 U3               |   1 U1               |   7 O1               |   103.99
    3 U3               |   1 U1               |   8 O2               |   103.99
    1 U1               |   8 O2               |   7 O1               |    76.36
    1 U1               |   2 U2               |   3 U3               |    65.03
    1 U1               |   2 U2               |   4 U4               |    99.45
    3 U3               |   2 U2               |   4 U4               |    65.73
    3 U3               |   2 U2               |   1 U1               |    65.03
    1 U1               |   3 U3               |   4 U4               |    87.42
    1 U1               |   3 U3               |   5 U5               |   123.15
    3 U3               |   2 U2               |   4 U4               |    65.73
    2 U2               |   3 U3               |   5 U5               |   114.27
    3 U3               |   5 U5               |   4 U4               |    65.73
    4 U4               |   2 U2               |   3 U3               |    65.73
    2 U2               |   4 U4               |   5 U5               |   114.27
    2 U2               |   4 U4               |   6 U6               |   123.15
    4 U4               |   5 U5               |   3 U3               |    65.73
    3 U3               |   4 U4               |   6 U6               |    87.42
    4 U4               |   5 U5               |   6 U6               |    65.03
    3 U3               |   5 U5               |   4 U4               |    65.73
    3 U3               |   5 U5               |   6 U6               |    99.45
    4 U4               |   5 U5               |   6 U6               |    65.03
    6 U6               |   5 U5               |   4 U4               |    65.03
    7 O1               |   8 O2               |   1 U1               |    76.36
    1 U1               |   8 O2               |   7 O1               |    76.36
 ------------------------------------------------------------------------------
                            number of included internuclear angles:         27
 ==============================================================================



          **********************************************************
          *                                                        *
          *                   NWPW BAND Calculation                *
          *                                                        *
          *  [(bundled Grassman/Stiefel manifold implementation)]  *
          *                                                        *
          *         [ NorthWest Chemistry implementation ]         *
          *                                                        *
          *                version #1.10   01/31/03                *
          *                                                        *
          *  A pseudopotential plane-wave band structure program   *
          *  with Brillouin zone sampling for optimizing crystals, *
          *  slabs, and polymers.  Developed by Eric J. Bylaska    *
          *  , Edoardo Apra, and Patrick Nichols.                  *
          *                                                        *
          **********************************************************
     >>>  JOB STARTED       AT Tue Mar 12 09:37:30 2013  <<<
          ================ input data ========================
 Brillioun Zone Vectors do not match!

 pseudopotential is not correctly formatted:U.cpp                                             

 pseudopotential is not correctly formatted---bad brillioun zone:U.cpp                                             

 Generated formatted_filename: ./perm/U.cpp
 - Spline fitted, nray=37686 -
 - filtered -
 Brillioun Zone Vectors do not match!

 pseudopotential is not correctly formatted:O.cpp                                             

 pseudopotential is not correctly formatted---bad brillioun zone:O.cpp                                             

 Generated formatted_filename: ./perm/O.cpp
 - Spline fitted, nray=37686 -
 - filtered -
 Error reading psi - bad unitcell
  - Ignored if the following  parameter is set
  - set nwpw:psi_nolattice .true.
 Error reading psi - bad unitcell
  - Ignored if the following  parameter is set
  - set nwpw:psi_nolattice .true.
 Error reading psi - bad unitcell
  - Ignored if the following  parameter is set
  - set nwpw:psi_nolattice .true.

 input psi filename:./perm/U6O2-211-parctr.movecs

 number of processors used:             288
 processor grid           :  36 x   1 x   8
 parallel mapping         :     2d  hilbert

 options:
      boundary conditions  = periodic    (version3)
      electron spin        = unrestricted
      exchange-correlation = PBE96 (White and Bird) parameterization

 elements involved in the cluster:
      1: U     core charge:14.0  lmax=3
             comment    : Parameterized (J.Chem. Phys. vol 128, 124507 (2008)) Troullier-Martins psp