----------------------------------------
Begin Torque Prologue (Thu Mar 14 01:28:15 2013)
Job ID:           388007.taubm1.campuscluster.illinois.edu
Username:         davis68
Group:            npre_rizwan
Job Name:         U6O2-100-opt-es
Limits:           ncpus=1,neednodes=24:ppn=12,nodes=24:ppn=12,walltime=02:00:00
Job Queue:        cse
Account:          NPRE
Nodes:            taub381 taub403 taub404 taub405 taub434 taub440 taub441 taub442 taub443 taub444 taub445 taub447 taub448 taub449 taub450 taub452 taub453 taub455 taub457 taub458 taub459 taub460 taub462 taub487
End Torque Prologue
----------------------------------------
 argument  1 = ./U6O2-100-opt-es.nw



============================== echo of input deck ==============================
title "Gamma-uranium (100) adsorption"
echo

permanent_dir ./perm
scratch_dir   ./scratch

start U6O2-100-crossctr

memory 2500 mb

nwpw
  # Real-space discretization
  simulation_cell
    ngrid 64 64 512
  end

  # Spin multiplicity---quenched to 1 in the solid state
  mult 3

  # Band, k-point sampling, and parallelism
  monkhorst-pack 4 4 1
  np_dimensions 8 12 8
  mapping 2

  # Periodicity considerations
  ewald_rcut 3.0
  ewald_ncut 8

  # Simulation parameters
  #restricted    # DFT||ODFT||RESTRICTED||UNRESTRICTED
  xc pbe96
  cutoff 90.0
  loop 10 300
  tolerances 1.0e-7 1.0e-7
end
set nwpw:minimizer      2
set nwpw:lcao_skip      .true.
set nwpw:kbpp_ray       .true.
set nwpw:kbpp_filter    .true.

## Optimization ##
driver
  #clear                # Deletes all restart data
  loose               # Specify loose, default, or tight convergence
  xyz U6O2     # Output XYZ file of geometry at each stage
  maxiter 80
end
set driver:linopt 0
set nwpw:cif_filename U6O2.opt
set nwpw:psi_nolattice .true.

#       (100) gamma-uranium surface with surface displacements:	29.7%	-15.3%	and X displacement of	1.75	Å
geometry	center	noautosym	noautoz	print
	system	crystal
	lat_a	3.44
	lat_b	3.44
	lat_c	22.32
	alpha	90.0d0
	beta	90.0d0
	gamma	90.0d0
	end
	U1	0.50000	0.50000	0.72009
	U2	0.00000	0.00000	0.66591
	U3	0.50000	0.50000	0.57706
	U4	0.00000	0.00000	0.50000
	U5	0.50000	0.50000	0.41115
	U6	0.00000	0.00000	0.35697
	O1	0.3171194331	0.2412607529	0.801748806
	O2	0.939743561	0.3500437384	0.7891835125
end
#task band energy

constraints
  clear
end

# Get the electronic characteristics of this geometry.
nwpw
  dos
  efield
  mulliken
  #esp
  #efieldgrad
  #electrondensity
end
task pspw energy ignore

# A.M.D.G.
================================================================================


                                         
                                         


             Northwest Computational Chemistry Package (NWChem) 6.1.1
             --------------------------------------------------------


                    Environmental Molecular Sciences Laboratory
                       Pacific Northwest National Laboratory
                                Richland, WA 99352

                              Copyright (c) 1994-2012
                       Pacific Northwest National Laboratory
                            Battelle Memorial Institute

             NWChem is an open-source computational chemistry package
                        distributed under the terms of the
                      Educational Community License (ECL) 2.0
             A copy of the license is included with this distribution
                              in the LICENSE.TXT file

                                  ACKNOWLEDGMENT
                                  --------------

            This software and its documentation were developed at the
            EMSL at Pacific Northwest National Laboratory, a multiprogram
            national laboratory, operated for the U.S. Department of Energy
            by Battelle under Contract Number DE-AC05-76RL01830. Support
            for this work was provided by the Department of Energy Office
            of Biological and Environmental Research, Office of Basic
            Energy Sciences, and the Office of Advanced Scientific Computing.


           Job information
           ---------------

    hostname        = taub462
    program         = /home/davis68/bin/nwchem-dev
    date            = Thu Mar 14 01:28:53 2013

    compiled        = Wed_Oct_03_09:41:00_2012
    source          = /home/davis68/nwchem/nwchem-src-2012-Aug-27/
    nwchem branch   = Development
    nwchem revision = 22805
    ga revision     = 10079
    input           = ./U6O2-100-opt-es.nw
    prefix          = U6O2-100-crossctr.
    data base       = ./perm/U6O2-100-crossctr.db
    status          = startup
    nproc           =      288
    time left       =     -1s



           Memory information
           ------------------

    heap     =   81920001 doubles =    625.0 Mbytes
    stack    =   81920001 doubles =    625.0 Mbytes
    global   =  163840000 doubles =   1250.0 Mbytes (distinct from heap & stack)
    total    =  327680002 doubles =   2500.0 Mbytes
    verify   = yes
    hardfail = no 


           Directory information
           ---------------------

  0 permanent = ./perm
  0 scratch   = ./scratch




                                NWChem Input Module
                                -------------------


                          Gamma-uranium (100) adsorption
                          ------------------------------

  !!!!!!!!!  geom_3d NEEDS TESTING !!!!!!!!!! 


                             Geometry "geometry" -> ""
                             -------------------------

 Output coordinates in angstroms (scale by  1.889725989 to convert to a.u.)

  No.       Tag          Charge          X              Y              Z
 ---- ---------------- ---------- -------------- -------------- --------------
    1 U1                  92.0000     1.72000000     1.72000000    16.07240880
    2 U2                  92.0000     0.00000000     0.00000000    14.86311120
    3 U3                  92.0000     1.72000000     1.72000000    12.87997920
    4 U4                  92.0000     0.00000000     0.00000000    11.16000000
    5 U5                  92.0000     1.72000000     1.72000000     9.17686800
    6 U6                  92.0000     0.00000000     0.00000000     7.96757040
    7 O1                   8.0000     1.09089085     0.82993699    17.89503335
    8 O2                   8.0000     3.23271785     1.20415046    17.61457600

      Lattice Parameters 
      ------------------ 

      lattice vectors in angstroms (scale by  1.889725989 to convert to a.u.)

      a1=<   3.440   0.000   0.000 >
      a2=<   0.000   3.440   0.000 >
      a3=<   0.000   0.000  22.320 >
      a=       3.440 b=      3.440 c=      22.320
      alpha=  90.000 beta=  90.000 gamma=  90.000
      omega=   264.1

      reciprocal lattice vectors in a.u.

      b1=<   0.967   0.000  -0.000 >
      b2=<  -0.000   0.967  -0.000 >
      b3=<   0.000   0.000   0.149 >

      Atomic Mass 
      ----------- 

      U1               238.050800
      U2               238.050800
      U3               238.050800
      U4               238.050800
      U5               238.050800
      U6               238.050800
      O1                15.994910
      O2                15.994910


 ==============================================================================
                                internuclear distances
 ------------------------------------------------------------------------------
       center one      |      center two      | atomic units |  angstroms
 ------------------------------------------------------------------------------
    2 U2               |   1 U1               |     5.13338  |     2.71647
    3 U3               |   1 U1               |     6.03282  |     3.19243
    3 U3               |   2 U2               |     5.93073  |     3.13841
    4 U4               |   2 U2               |     6.99787  |     3.70311
    4 U4               |   3 U3               |     5.62971  |     2.97912
    5 U5               |   3 U3               |     6.99787  |     3.70311
    5 U5               |   4 U4               |     5.93073  |     3.13841
    6 U6               |   4 U4               |     6.03282  |     3.19243
    6 U6               |   5 U5               |     5.13338  |     2.71647
    7 O1               |   1 U1               |     4.01314  |     2.12366
    8 O2               |   1 U1               |     4.19702  |     2.22097
 ------------------------------------------------------------------------------
                         number of included internuclear distances:         11
 ==============================================================================



 ==============================================================================
                                 internuclear angles
 ------------------------------------------------------------------------------
        center 1       |       center 2       |       center 3       |  degrees
 ------------------------------------------------------------------------------
    1 U1               |   2 U2               |   3 U3               |    65.62
    2 U2               |   1 U1               |   7 O1               |    85.94
    2 U2               |   1 U1               |   8 O2               |   126.39
    3 U3               |   1 U1               |   7 O1               |   149.12
    3 U3               |   1 U1               |   8 O2               |   133.98
    7 O1               |   1 U1               |   8 O2               |    60.56
    1 U1               |   2 U2               |   3 U3               |    65.62
    1 U1               |   2 U2               |   4 U4               |   116.43
    2 U2               |   3 U3               |   4 U4               |    74.45
    3 U3               |   2 U2               |   1 U1               |    65.62
    1 U1               |   3 U3               |   4 U4               |   125.26
    1 U1               |   3 U3               |   5 U5               |   180.00
    2 U2               |   3 U3               |   4 U4               |    74.45
    2 U2               |   3 U3               |   5 U5               |   129.19
    3 U3               |   4 U4               |   5 U5               |    74.45
    4 U4               |   3 U3               |   2 U2               |    74.45
    2 U2               |   4 U4               |   5 U5               |   129.19
    2 U2               |   4 U4               |   6 U6               |   180.00
    3 U3               |   4 U4               |   5 U5               |    74.45
    3 U3               |   4 U4               |   6 U6               |   125.26
    4 U4               |   5 U5               |   6 U6               |    65.62
    5 U5               |   4 U4               |   3 U3               |    74.45
    3 U3               |   5 U5               |   6 U6               |   116.43
    4 U4               |   5 U5               |   6 U6               |    65.62
    6 U6               |   5 U5               |   4 U4               |    65.62
 ------------------------------------------------------------------------------
                            number of included internuclear angles:         25
 ==============================================================================



 no fixed atoms found
 no springs found
          ****************************************************
          *                                                  *
          *               NWPW PSPW Calculation              *
          *                                                  *
          *  [ (Grassman/Stiefel manifold implementation) ]  *
          *                                                  *
          *      [ NorthWest Chemistry implementation ]      *
          *                                                  *
          *            version #5.10   06/12/02              *
          *                                                  *
          *    This code was developed by Eric J. Bylaska,   *
          *    and was based upon algorithms and code        *
          *    developed by the group of Prof. John H. Weare *
          *                                                  *
          ****************************************************
     >>>  JOB STARTED       AT Thu Mar 14 01:28:54 2013  <<<
          ================ input data ========================

 Generated formatted_filename: ./perm/U.vpp
 - filtering pseudopotential -

 Generated formatted_filename: ./perm/O.vpp
 - filtering pseudopotential -

 + converting wavefunctions from band format to pspw format
 filename converted    : U6O2-100-crossctr.movecs                          
 band filename moved to: U6O2-100-crossctr.movecs.band                     

 input psi filename:./perm/U6O2-100-crossctr.movecs
 Warning - Gram-Schmidt being performed on psi:   96.000000000000000        57.978602026858923        96.000000000000000        38.021397973141077     

 initializing pspw_APC data structure
 ------------------------------------
 nga, ngs:                    3                   24
 Gc      :   2.5000000000000000     
 APC gamma:                    1  0.59999999999999998     
 APC gamma:                    2  0.90000000000000002     
 APC gamma:                    3   1.3500000000000001     

 number of processors used:       288
 processor grid           :  24 x  12
 parallel mapping         :2d hilbert
 parallel mapping         :  balanced
 parallel io              :       off

 options:
      boundary conditions  = periodic    (version3)
      electron spin        = unrestricted
      exchange-correlation = PBE96 (White and Bird) parameterization

 elements involved in the cluster:
      1: U   valence charge: 14.0000  lmax=  3
             comment    : Parameterized (J.Chem. Phys. vol 128, 124507 (2008)) Troullier-Martins psp
             pseudpotential type            :   0
             highest angular component      :   3
             local potential used           :   0
             number of non-local projections:  15
             cutoff =   1.421   1.602   2.400   1.250

      2: O   valence charge:  6.0000  lmax=  2
             comment    : Parameterized (Chem.Phys.Lett., vol 322, page 447) Hamman psp
             pseudpotential type            :   0
             highest angular component      :   2
             local potential used           :   2
             number of non-local projections:   4
             cutoff =   0.700   0.700   0.700


 total charge:   0.000

 atomic composition:
     U   :    6     O   :    2

 number of electrons: spin up=    49 (   5 per task)  down=    47 (   4 per task) (fourier space)
 number of orbitals : spin up=    49 (   5 per task)  down=    47 (   4 per task) (fourier space)

 supercell:
      cell_name:  cell_default                                      
      lattice:    a1=<   6.501   0.000   0.000 >
                  a2=<   0.000   6.501   0.000 >
                  a3=<   0.000   0.000  42.179 >
      reciprocal: b1=<   0.967   0.000  -0.000 >
                  b2=<  -0.000   0.967  -0.000 >
                  b3=<   0.000   0.000   0.149 >
      lattice:    a=       6.501 b=      6.501 c=      42.179
                  alpha=  90.000 beta=  90.000 gamma=  90.000
                  omega=      1782.4

      density cutoff=180.000  fft= 64x 64x512(   102812 waves     4283 per task)
      wavefnc cutoff= 90.000  fft= 64x 64x512(    36243 waves     1510 per task)
      ewald summation: cut radius=    3.00  and  8
                        madelung=-3.34887517

 technical parameters:
      time step=      5.80     ficticious mass=  400000.0
      tolerance=.100E-06 (energy)   0.100E-06 (density)
      maximum iterations =      3000 (   10 inner    300 outer )





== Energy Calculation ==


          ============ Grassmann lmbfgs iteration ============
     >>>  ITERATION STARTED AT Thu Mar 14 01:31:27 2013  <<<
    iter.           Energy         DeltaE       DeltaRho 
    ------------------------------------------------------
      10   -0.3304696414E+03   -0.16353E+01    0.29972E+01
     -  10 steepest descent iterations performed
      20   -0.3382885292E+03   -0.14306E+00    0.12554E+00
     -  10 steepest descent iterations performed
      30   -0.3395523681E+03   -0.54804E-01    0.32986E-01
     -  10 steepest descent iterations performed
      40   -0.3400007550E+03   -0.35092E-01    0.12096E-01
     -  10 steepest descent iterations performed
      50   -0.3402197871E+03   -0.14671E-01    0.89686E-02
     -  10 steepest descent iterations performed
      60   -0.3403413031E+03   -0.84427E-02    0.46588E-02
      70   -0.3404745200E+03   -0.40741E-02    0.23148E-01
      80   -0.3405054799E+03   -0.35667E-02    0.33673E-02
      90   -0.3405487956E+03   -0.28614E-02    0.12862E-01
     100   -0.3405732644E+03   -0.18469E-02    0.57364E-02
     110   -0.3405970925E+03   -0.25981E-02    0.85738E-02
     -  10 steepest descent iterations performed
     120   -0.3406212373E+03   -0.15358E-02    0.13268E-02
     130   -0.3406396380E+03   -0.16093E-02    0.38520E-02
     -  10 steepest descent iterations performed
     140   -0.3406508758E+03   -0.79774E-03    0.70350E-03
     150   -0.3406597156E+03   -0.75001E-03    0.22432E-02
     160   -0.3406713569E+03   -0.73120E-03    0.50278E-02
     170   -0.3406783138E+03   -0.69250E-03    0.28847E-02
     180   -0.3406845902E+03   -0.49715E-03    0.34514E-02
     190   -0.3406905411E+03   -0.61200E-03    0.43074E-02
     -  10 steepest descent iterations performed
     200   -0.3406984244E+03   -0.62626E-03    0.58847E-03
     -  10 steepest descent iterations performed
     210   -0.3407018390E+03   -0.15225E-03    0.20103E-03
     220   -0.3407062647E+03   -0.27184E-03    0.22662E-02
     -  10 steepest descent iterations performed
     230   -0.3407083694E+03   -0.65821E-04    0.93332E-04
     240   -0.3407091332E+03   -0.11369E-03    0.21777E-03
     -  10 steepest descent iterations performed
     250   -0.3407099427E+03   -0.43586E-04    0.76031E-04
     260   -0.3407107036E+03   -0.57019E-04    0.46183E-03
     -  10 steepest descent iterations performed
     270   -0.3407114056E+03   -0.26938E-04    0.42078E-04
     280   -0.3407116744E+03   -0.36215E-04    0.84638E-04
     -  10 steepest descent iterations performed
     290   -0.3407120074E+03   -0.20241E-04    0.35897E-04
     300   -0.3407123198E+03   -0.23080E-04    0.19577E-03
     -  10 steepest descent iterations performed
     310   -0.3407126420E+03   -0.13385E-04    0.21804E-04
     320   -0.3407127704E+03   -0.17014E-04    0.42935E-04
     -  10 steepest descent iterations performed
     330   -0.3407129416E+03   -0.11089E-04    0.20031E-04
     340   -0.3407131051E+03   -0.12145E-04    0.10804E-03
     -  10 steepest descent iterations performed
     350   -0.3407132885E+03   -0.81470E-05    0.13771E-04
     360   -0.3407133646E+03   -0.10070E-04    0.27492E-04
     -  10 steepest descent iterations performed
     370   -0.3407134719E+03   -0.72590E-05    0.13670E-04
     380   -0.3407135763E+03   -0.78755E-05    0.73873E-04
     -  10 steepest descent iterations performed
     390   -0.3407137014E+03   -0.58498E-05    0.10242E-04
     400   -0.3407137547E+03   -0.70435E-05    0.20486E-04
     -  10 steepest descent iterations performed
     410   -0.3407138331E+03   -0.54985E-05    0.10748E-04
     420   -0.3407139100E+03   -0.58428E-05    0.56939E-04
     -  10 steepest descent iterations performed
     430   -0.3407140065E+03   -0.46883E-05    0.83690E-05
     440   -0.3407140481E+03   -0.54682E-05    0.16412E-04
     -  10 steepest descent iterations performed
     450   -0.3407141112E+03   -0.45275E-05    0.90534E-05
     460   -0.3407141732E+03   -0.46847E-05    0.46343E-04
     -  10 steepest descent iterations performed
     470   -0.3407142534E+03   -0.39993E-05    0.71533E-05
     480   -0.3407142879E+03   -0.45241E-05    0.13587E-04
     -  10 steepest descent iterations performed
     490   -0.3407143418E+03   -0.39313E-05    0.78683E-05
     500   -0.3407143945E+03   -0.39631E-05    0.38742E-04
     -  10 steepest descent iterations performed
     510   -0.3407144641E+03   -0.35449E-05    0.62508E-05
     520   -0.3407144942E+03   -0.39047E-05    0.11465E-04
     -  10 steepest descent iterations performed
     530   -0.3407145419E+03   -0.35259E-05    0.69313E-05
     540   -0.3407145884E+03   -0.34856E-05    0.32998E-04
     550   -0.3407153136E+03   -0.45987E-04    0.98866E-02
     -  10 steepest descent iterations performed
     560   -0.3407156536E+03   -0.80290E-05    0.15662E-04
     570   -0.3407157087E+03   -0.68005E-05    0.55449E-05
     580   -0.3407158237E+03   -0.81390E-05    0.62167E-04
     -  10 steepest descent iterations performed
     590   -0.3407159070E+03   -0.31513E-05    0.57391E-05
     600   -0.3407159676E+03   -0.71680E-05    0.20787E-04
     -  10 steepest descent iterations performed
     610   -0.3407160419E+03   -0.54803E-05    0.54201E-05
     620   -0.3407161018E+03   -0.61309E-05    0.18304E-04
     -  10 steepest descent iterations performed
     630   -0.3407161867E+03   -0.45560E-05    0.59351E-05
     640   -0.3407162376E+03   -0.56526E-05    0.12501E-04
     -  10 steepest descent iterations performed
     650   -0.3407163184E+03   -0.63199E-05    0.58320E-05
     -  10 steepest descent iterations performed
     660   -0.3407163857E+03   -0.75287E-05    0.13079E-04
     -  10 steepest descent iterations performed
     670   -0.3407164520E+03   -0.47332E-05    0.42405E-05
     680   -0.3407166565E+03   -0.36971E-04    0.24730E-03
     -  10 steepest descent iterations performed
     690   -0.3407168730E+03   -0.33513E-05    0.55448E-05
     700   -0.3407169083E+03   -0.36838E-05    0.48648E-05
     -  10 steepest descent iterations performed
     710   -0.3407169759E+03   -0.13018E-04    0.11785E-04
     -  10 steepest descent iterations performed
     720   -0.3407170377E+03   -0.32231E-05    0.61418E-05
     730   -0.3407171600E+03   -0.13309E-04    0.10693E-03
     -  10 steepest descent iterations performed
     740   -0.3407172849E+03   -0.36425E-05    0.40045E-05
     750   -0.3407173096E+03   -0.29319E-05    0.29532E-05
     760   -0.3407174968E+03   -0.19444E-04    0.39863E-03
     -  10 steepest descent iterations performed
     770   -0.3407176364E+03   -0.28987E-05    0.42974E-05
     780   -0.3407176520E+03   -0.15234E-05    0.13620E-05
     790   -0.3407176887E+03   -0.42661E-05    0.30120E-04
     -  10 steepest descent iterations performed
     800   -0.3407177273E+03   -0.89256E-06    0.17390E-05
     810   -0.3407177433E+03   -0.23894E-05    0.47599E-05
     -  10 steepest descent iterations performed
     820   -0.3407177642E+03   -0.15942E-05    0.25702E-05
     830   -0.3407177874E+03   -0.25157E-05    0.14649E-04
     -  10 steepest descent iterations performed
     840   -0.3407178156E+03   -0.12466E-05    0.17712E-05
     850   -0.3407178266E+03   -0.11717E-05    0.27693E-05
     860   -0.3407179092E+03   -0.93837E-05    0.27948E-03
     -  10 steepest descent iterations performed
     870   -0.3407179769E+03   -0.13278E-05    0.19363E-05
     880   -0.3407179843E+03   -0.73956E-06    0.65223E-06
     890   -0.3407179972E+03   -0.10853E-05    0.84534E-05
     -  10 steepest descent iterations performed
     900   -0.3407180122E+03   -0.52081E-06    0.11198E-05
     910   -0.3407180202E+03   -0.13067E-05    0.29379E-05
     -  10 steepest descent iterations performed
     920   -0.3407180313E+03   -0.96868E-06    0.13901E-05
     930   -0.3407180408E+03   -0.73994E-06    0.49654E-05
     940   -0.3407181134E+03   -0.49124E-05    0.42627E-03
     -  10 steepest descent iterations performed
     950   -0.3407181689E+03   -0.11622E-05    0.12658E-05
     960   -0.3407181739E+03   -0.33407E-06    0.24104E-06
     970   -0.3407181776E+03   -0.39596E-06    0.10501E-05
     -  10 steepest descent iterations performed
     980   -0.3407181825E+03   -0.40062E-06    0.79306E-06
     -  10 steepest descent iterations performed
     990   -0.3407181863E+03   -0.31360E-06    0.71781E-06
    1000   -0.3407182030E+03   -0.32493E-05    0.47760E-04
     -  10 steepest descent iterations performed
    1010   -0.3407182178E+03   -0.39696E-06    0.26104E-06
    1020   -0.3407182199E+03   -0.13441E-06    0.20097E-06
    1030   -0.3407182241E+03   -0.30873E-06    0.31712E-05
     -  10 steepest descent iterations performed
    1040   -0.3407182287E+03   -0.19791E-06    0.33208E-06
    1050   -0.3407182313E+03   -0.29763E-06    0.10564E-05
     -  10 steepest descent iterations performed
    1060   -0.3407182347E+03   -0.14052E-06    0.48656E-06
    1070   -0.3407182372E+03   -0.28511E-06    0.13113E-05
     -  10 steepest descent iterations performed
    1080   -0.3407182409E+03   -0.28311E-06    0.40808E-06
    1090   -0.3407182427E+03   -0.20631E-06    0.59194E-06
    1100   -0.3407182577E+03   -0.23631E-05    0.74644E-04
     -  10 steepest descent iterations performed
    1110   -0.3407182700E+03   -0.14238E-06    0.14685E-06
    1120   -0.3407182714E+03   -0.89087E-07    0.15536E-06
    1130   -0.3407182715E+03   -0.90296E-07    0.18747E-08
  *** tolerance ok. iteration terminated
     >>>  ITERATION ENDED   AT Thu Mar 14 01:59:12 2013  <<<


==  Summary Of Results  ==

 number of electrons: spin up=   48.00000  down=   46.00000 (real space)

 total     energy    :  -0.3407182715E+03 (   -0.42590E+02/ion)
 total orbital energy:  -0.3817249484E+02 (   -0.39763E+00/electron)
 hartree   energy    :   0.1106094771E+04 (    0.11522E+02/electron)
 exc-corr  energy    :  -0.4551007872E+02 (   -0.47406E+00/electron)
 ion-ion   energy    :   0.7898285812E+03 (    0.98729E+02/ion)

 kinetic (planewave) :   0.1614626148E+03 (    0.16819E+01/electron)
 V_local (planewave) :  -0.2303539958E+04 (   -0.23995E+02/electron)
 V_nl    (planewave) :  -0.4905420179E+02 (   -0.51098E+00/electron)
 V_Coul  (planewave) :   0.2212189542E+04 (    0.23044E+02/electron)
 V_xc.   (planewave) :  -0.5923049201E+02 (   -0.61698E+00/electron)
 Virial Coefficient  :  -0.1236416925E+01

 orbital energies:
     0.1019298E+00 (   2.774eV)
     0.9466177E-01 (   2.576eV)
     0.8874774E-01 (   2.415eV)     0.9625408E-01 (   2.619eV)
     0.8733059E-01 (   2.376eV)     0.9329925E-01 (   2.539eV)
     0.8444595E-01 (   2.298eV)     0.9283008E-01 (   2.526eV)
     0.8401248E-01 (   2.286eV)     0.9185196E-01 (   2.499eV)
     0.8008545E-01 (   2.179eV)     0.7660462E-01 (   2.085eV)
     0.7797239E-01 (   2.122eV)     0.7390465E-01 (   2.011eV)
     0.7659457E-01 (   2.084eV)     0.7206238E-01 (   1.961eV)
     0.7357893E-01 (   2.002eV)     0.5719633E-01 (   1.556eV)
     0.6793911E-01 (   1.849eV)     0.5125951E-01 (   1.395eV)
     0.6717306E-01 (   1.828eV)     0.4779443E-01 (   1.301eV)
     0.6341159E-01 (   1.726eV)     0.4391238E-01 (   1.195eV)
     0.3778557E-01 (   1.028eV)     0.3053136E-01 (   0.831eV)
     0.3255135E-08 (   0.000eV)     0.5373159E-02 (   0.146eV)
    -0.2983100E-02 (  -0.081eV)     0.4468253E-04 (   0.001eV)
    -0.1039225E-01 (  -0.283eV)     0.2906756E-08 (   0.000eV)
    -0.1711282E-01 (  -0.466eV)    -0.5661179E-02 (  -0.154eV)
    -0.3838819E-01 (  -1.045eV)    -0.2882835E-01 (  -0.784eV)
    -0.4253012E-01 (  -1.157eV)    -0.5802672E-01 (  -1.579eV)
    -0.8023045E-01 (  -2.183eV)    -0.9250489E-01 (  -2.517eV)
    -0.8580183E-01 (  -2.335eV)    -0.1160969E+00 (  -3.159eV)
    -0.1796078E+00 (  -4.887eV)    -0.1894419E+00 (  -5.155eV)
    -0.3998167E+00 ( -10.880eV)    -0.4210297E+00 ( -11.457eV)
    -0.4417177E+00 ( -12.020eV)    -0.4254516E+00 ( -11.577eV)
    -0.4430273E+00 ( -12.055eV)    -0.4356122E+00 ( -11.854eV)
    -0.4490136E+00 ( -12.218eV)    -0.4637418E+00 ( -12.619eV)
    -0.4662418E+00 ( -12.687eV)    -0.4660597E+00 ( -12.682eV)
    -0.4919641E+00 ( -13.387eV)    -0.4749981E+00 ( -12.925eV)
    -0.5168305E+00 ( -14.064eV)    -0.4863024E+00 ( -13.233eV)
    -0.5179100E+00 ( -14.093eV)    -0.4995315E+00 ( -13.593eV)
    -0.5192130E+00 ( -14.129eV)    -0.5155456E+00 ( -14.029eV)
    -0.5539257E+00 ( -15.073eV)    -0.5379186E+00 ( -14.638eV)
    -0.5753590E+00 ( -15.656eV)    -0.5403096E+00 ( -14.703eV)
    -0.5792342E+00 ( -15.762eV)    -0.5508480E+00 ( -14.989eV)
    -0.5815180E+00 ( -15.824eV)    -0.5785550E+00 ( -15.743eV)
    -0.5911479E+00 ( -16.086eV)    -0.5847061E+00 ( -15.911eV)
    -0.6016753E+00 ( -16.373eV)    -0.5893652E+00 ( -16.038eV)
    -0.6067627E+00 ( -16.511eV)    -0.5922420E+00 ( -16.116eV)
    -0.6107329E+00 ( -16.619eV)    -0.6113499E+00 ( -16.636eV)
    -0.6112869E+00 ( -16.634eV)    -0.6387965E+00 ( -17.383eV)
    -0.6267479E+00 ( -17.055eV)    -0.6433165E+00 ( -17.506eV)
    -0.7648686E+00 ( -20.813eV)    -0.7803317E+00 ( -21.234eV)
    -0.1398707E+01 ( -38.061eV)    -0.1383722E+01 ( -37.653eV)
    -0.1400991E+01 ( -38.123eV)    -0.1397723E+01 ( -38.034eV)
    -0.1462981E+01 ( -39.810eV)    -0.1426768E+01 ( -38.825eV)
    -0.1469153E+01 ( -39.978eV)    -0.1455198E+01 ( -39.598eV)
    -0.1486222E+01 ( -40.442eV)    -0.1464486E+01 ( -39.851eV)
    -0.1495573E+01 ( -40.697eV)    -0.1516946E+01 ( -41.279eV)


== DOS generation ==

 filename:./scratch/U6O2-100-crossctr.smear_dos_alpha
 sign=    1.00, alpha=  0.0018, (emin:emax)= (   -1.6169:    0.2019), npoints=  500


== DOS generation ==

 filename:./scratch/U6O2-100-crossctr.smear_dos_beta
 sign=   -1.00, alpha=  0.0018, (emin:emax)= (   -1.6169:    0.2019), npoints=  500

 Total PSPW energy   :  -0.3407182715E+03


=== Spin Contamination ===

 <Sexact^2> =    2.0000000000000000     
 <S^2>      =    8.0993485875265776     



== Center of Charge ==

spin up     (    0.0805,    0.1934,   -2.1954 )
spin down   (    0.0944,    0.2184,   -3.2665 )
     total  (    0.0873,    0.2056,   -2.7191 )
ionic       (   -1.3177,   -1.1818,   -5.8074 )
crystal     (   -0.0016,   -0.0163,   -0.6399 )


== Crystal Dipole ==

mu   =  (   -8.5411,  -21.3056,  199.6107 ) au