----------------------------------------
Begin Torque Prologue (Sun Mar 10 21:28:09 2013)
Job ID:           385080.taubm1.campuscluster.illinois.edu
Username:         davis68
Group:            npre_rizwan
Job Name:         U6O2-100-opt
Limits:           ncpus=1,neednodes=24:ppn=12,nodes=24:ppn=12,walltime=04:00:00
Job Queue:        cse
Account:          NPRE
Nodes:            taub094 taub253 taub276 taub278 taub279 taub280 taub281 taub283 taub286 taub308 taub313 taub316 taub380 taub385 taub387 taub389 taub404 taub409 taub411 taub448 taub453 taub454 taub479 taub494
End Torque Prologue
----------------------------------------
 argument  1 = ./U6O2-100-opt.nw



============================== echo of input deck ==============================
title "Gamma-uranium (100) adsorption"
echo

permanent_dir ./perm
scratch_dir   ./scratch

restart U6O2-100-crossctr

memory 2500 mb

nwpw
  # Real-space discretization
  simulation_cell
    ngrid 64 64 512
  end

  # Spin multiplicity---quenched to 1 in the solid state
  mult 3

  # Band, k-point sampling, and parallelism
  monkhorst-pack 4 4 1
  np_dimensions 8 12 8
  mapping 2

  # Periodicity considerations
  ewald_rcut 3.0
  ewald_ncut 8

  # Simulation parameters
  #restricted    # DFT||ODFT||RESTRICTED||UNRESTRICTED
  xc pbe96
  cutoff 90.0
  loop 10 300
  tolerances 1.0e-7 1.0e-7
end
set nwpw:minimizer      2
set nwpw:lcao_skip      .true.
set nwpw:kbpp_ray       .true.
set nwpw:kbpp_filter    .true.

## Optimization ##
driver
  #clear                # Deletes all restart data
  loose               # Specify loose, default, or tight convergence
  xyz U6O2     # Output XYZ file of geometry at each stage
  maxiter 80
end
set driver:linopt 0
set nwpw:cif_filename U6O2.opt
set nwpw:psi_nolattice .true.

#       (100) gamma-uranium surface with surface displacements:	29.7%	-15.3%	and X displacement of	1.75	Å
geometry	center	noautosym	noautoz	print
	system	crystal
	lat_a	3.44
	lat_b	3.44
	lat_c	22.32
	alpha	90.0d0
	beta	90.0d0
	gamma	90.0d0
	end
	U1	0.50000	0.50000	0.72009
	U2	0.00000	0.00000	0.66591
	U3	0.50000	0.50000	0.57706
	U4	0.00000	0.00000	0.50000
	U5	0.50000	0.50000	0.41115
	U6	0.00000	0.00000	0.35697
	O1	0.38535	0.14015	0.81893
	O2	0.08226	0.35880	0.77945
end
constraints surf
  fix atom 1:6
end
set constraints surf
task band optimize ignore

# A.M.D.G.
================================================================================


                                         
                                         


             Northwest Computational Chemistry Package (NWChem) 6.1.1
             --------------------------------------------------------


                    Environmental Molecular Sciences Laboratory
                       Pacific Northwest National Laboratory
                                Richland, WA 99352

                              Copyright (c) 1994-2012
                       Pacific Northwest National Laboratory
                            Battelle Memorial Institute

             NWChem is an open-source computational chemistry package
                        distributed under the terms of the
                      Educational Community License (ECL) 2.0
             A copy of the license is included with this distribution
                              in the LICENSE.TXT file

                                  ACKNOWLEDGMENT
                                  --------------

            This software and its documentation were developed at the
            EMSL at Pacific Northwest National Laboratory, a multiprogram
            national laboratory, operated for the U.S. Department of Energy
            by Battelle under Contract Number DE-AC05-76RL01830. Support
            for this work was provided by the Department of Energy Office
            of Biological and Environmental Research, Office of Basic
            Energy Sciences, and the Office of Advanced Scientific Computing.


           Job information
           ---------------

    hostname        = taub494
    program         = /home/davis68/bin/nwchem-dev
    date            = Sun Mar 10 21:28:50 2013

    compiled        = Wed_Oct_03_09:41:00_2012
    source          = /home/davis68/nwchem/nwchem-src-2012-Aug-27/
    nwchem branch   = Development
    nwchem revision = 22805
    ga revision     = 10079
    input           = ./U6O2-100-opt.nw
    prefix          = U6O2-100-crossctr.
    data base       = ./perm/U6O2-100-crossctr.db
    status          = restart
    nproc           =      288
    time left       =     -1s



           Memory information
           ------------------

    heap     =   81920001 doubles =    625.0 Mbytes
    stack    =   81920001 doubles =    625.0 Mbytes
    global   =  163840000 doubles =   1250.0 Mbytes (distinct from heap & stack)
    total    =  327680002 doubles =   2500.0 Mbytes
    verify   = yes
    hardfail = no 


           Directory information
           ---------------------

  0 permanent = ./perm
  0 scratch   = ./scratch


           Previous task information
           -------------------------

    Theory    = band                            
    Operation = optimize                      
    Status    = fail                          
    Qmmm      = F
    Ignore    = T


           Geometries in the database
           --------------------------

       Name                              Natoms  Last Modified
       --------------------------------  ------  ------------------------
    1  geometry                               8  Sun Mar 10 07:56:02 2013  
    2  driverinitial                          8  Sun Mar 10 07:56:02 2013  
    3  pspwgeometry                           8  Sun Mar 10 07:59:33 2013  

  The geometry named "geometry" is the default for restart



           Basis sets in the database
           --------------------------

  There are no basis sets in the database



                                NWChem Input Module
                                -------------------


                          Gamma-uranium (100) adsorption
                          ------------------------------

  !!!!!!!!!  geom_3d NEEDS TESTING !!!!!!!!!! 


                             Geometry "geometry" -> ""
                             -------------------------

 Output coordinates in angstroms (scale by  1.889725989 to convert to a.u.)

  No.       Tag          Charge          X              Y              Z
 ---- ---------------- ---------- -------------- -------------- --------------
    1 U1                  92.0000     1.72000000     1.72000000    16.07240880
    2 U2                  92.0000     0.00000000     0.00000000    14.86311120
    3 U3                  92.0000     1.72000000     1.72000000    12.87997920
    4 U4                  92.0000     0.00000000     0.00000000    11.16000000
    5 U5                  92.0000     1.72000000     1.72000000     9.17686800
    6 U6                  92.0000     0.00000000     0.00000000     7.96757040
    7 O1                   8.0000     1.32560400     0.48211600    18.27851760
    8 O2                   8.0000     0.28297440     1.23427200    17.39732400

      Lattice Parameters 
      ------------------ 

      lattice vectors in angstroms (scale by  1.889725989 to convert to a.u.)

      a1=<   3.440   0.000   0.000 >
      a2=<   0.000   3.440   0.000 >
      a3=<   0.000   0.000  22.320 >
      a=       3.440 b=      3.440 c=      22.320
      alpha=  90.000 beta=  90.000 gamma=  90.000
      omega=   264.1

      reciprocal lattice vectors in a.u.

      b1=<   0.967   0.000  -0.000 >
      b2=<  -0.000   0.967  -0.000 >
      b3=<   0.000   0.000   0.149 >

      Atomic Mass 
      ----------- 

      U1               238.050800
      U2               238.050800
      U3               238.050800
      U4               238.050800
      U5               238.050800
      U6               238.050800
      O1                15.994910
      O2                15.994910


 ==============================================================================
                                internuclear distances
 ------------------------------------------------------------------------------
       center one      |      center two      | atomic units |  angstroms
 ------------------------------------------------------------------------------
    2 U2               |   1 U1               |     5.13338  |     2.71647
    3 U3               |   1 U1               |     6.03282  |     3.19243
    3 U3               |   2 U2               |     5.93073  |     3.13841
    4 U4               |   2 U2               |     6.99787  |     3.70311
    4 U4               |   3 U3               |     5.62971  |     2.97912
    5 U5               |   3 U3               |     6.99787  |     3.70311
    5 U5               |   4 U4               |     5.93073  |     3.13841
    6 U6               |   4 U4               |     6.03282  |     3.19243
    6 U6               |   5 U5               |     5.13338  |     2.71647
    7 O1               |   1 U1               |     4.83815  |     2.56024
    8 O2               |   1 U1               |     3.80599  |     2.01404
    8 O2               |   2 U2               |     5.35354  |     2.83297
 ------------------------------------------------------------------------------
                         number of included internuclear distances:         12
 ==============================================================================



 ==============================================================================
                                 internuclear angles
 ------------------------------------------------------------------------------
        center 1       |       center 2       |       center 3       |  degrees
 ------------------------------------------------------------------------------
    1 U1               |   2 U2               |   3 U3               |    65.62
    2 U2               |   1 U1               |   7 O1               |    88.85
    2 U2               |   1 U1               |   8 O2               |    71.84
    3 U3               |   1 U1               |   7 O1               |   149.51
    3 U3               |   1 U1               |   8 O2               |   131.14
    7 O1               |   1 U1               |   8 O2               |    37.50
    1 U1               |   2 U2               |   3 U3               |    65.62
    1 U1               |   2 U2               |   4 U4               |   116.43
    2 U2               |   1 U1               |   8 O2               |    71.84
    2 U2               |   3 U3               |   4 U4               |    74.45
    3 U3               |   2 U2               |   8 O2               |   105.77
    4 U4               |   2 U2               |   8 O2               |   153.45
    3 U3               |   2 U2               |   1 U1               |    65.62
    1 U1               |   3 U3               |   4 U4               |   125.26
    1 U1               |   3 U3               |   5 U5               |   180.00
    2 U2               |   3 U3               |   4 U4               |    74.45
    2 U2               |   3 U3               |   5 U5               |   129.19
    3 U3               |   4 U4               |   5 U5               |    74.45
    4 U4               |   3 U3               |   2 U2               |    74.45
    2 U2               |   4 U4               |   5 U5               |   129.19
    2 U2               |   4 U4               |   6 U6               |   180.00
    3 U3               |   4 U4               |   5 U5               |    74.45
    3 U3               |   4 U4               |   6 U6               |   125.26
    4 U4               |   5 U5               |   6 U6               |    65.62
    5 U5               |   4 U4               |   3 U3               |    74.45
    3 U3               |   5 U5               |   6 U6               |   116.43
    4 U4               |   5 U5               |   6 U6               |    65.62
    6 U6               |   5 U5               |   4 U4               |    65.62
    8 O2               |   1 U1               |   2 U2               |    71.84
 ------------------------------------------------------------------------------
                            number of included internuclear angles:         29
 ==============================================================================



 fixed atoms                  :   1     2     3     4
                                  5     6


 no springs found
                         NWChem Constraints Module
                         -------------------------
 General Information
 -------------------
 fixed atoms                  :   1     2     3     4
                                  5     6


 no springs found
 no springs found


                           NWChem Geometry Optimization
                           ----------------------------




                          Gamma-uranium (100) adsorption


 maximum gradient threshold         (gmax) =   0.004500
 rms gradient threshold             (grms) =   0.003000
 maximum cartesian step threshold   (xmax) =   0.018000
 rms cartesian step threshold       (xrms) =   0.012000
 fixed trust radius                (trust) =   0.300000
 maximum step size to saddle      (sadstp) =   0.100000
 energy precision                  (eprec) =   1.0D-07
 maximum number of steps          (nptopt) =   80
 initial hessian option           (inhess) =    0
 line search option               (linopt) =    0
 hessian update option            (modupd) =    1
 saddle point option              (modsad) =    0
 initial eigen-mode to follow     (moddir) =    0
 initial variable to follow       (vardir) =    0
 follow first negative mode     (firstneg) =    T
 apply conjugacy                    (opcg) =    F
 source of zmatrix                         =           


          -------------------
          Energy Minimization
          -------------------


 Using old Hessian from previous optimization

          --------
          Step   0
          --------


                         Geometry "geometry" -> "geometry"
                         ---------------------------------

 Output coordinates in angstroms (scale by  1.889725989 to convert to a.u.)

  No.       Tag          Charge          X              Y              Z
 ---- ---------------- ---------- -------------- -------------- --------------
    1 U1                  92.0000     1.72000000     1.72000000    16.07240880
    2 U2                  92.0000     0.00000000     0.00000000    14.86311120
    3 U3                  92.0000     1.72000000     1.72000000    12.87997920
    4 U4                  92.0000     0.00000000     0.00000000    11.16000000
    5 U5                  92.0000     1.72000000     1.72000000     9.17686800
    6 U6                  92.0000     0.00000000     0.00000000     7.96757040
    7 O1                   8.0000     1.32560400     0.48211600    18.27851760
    8 O2                   8.0000     0.28297440     1.23427200    17.39732400

      Lattice Parameters 
      ------------------ 

      lattice vectors in angstroms (scale by  1.889725989 to convert to a.u.)

      a1=<   3.440   0.000   0.000 >
      a2=<   0.000   3.440   0.000 >
      a3=<   0.000   0.000  22.320 >
      a=       3.440 b=      3.440 c=      22.320
      alpha=  90.000 beta=  90.000 gamma=  90.000
      omega=   264.1

      reciprocal lattice vectors in a.u.

      b1=<   0.967   0.000  -0.000 >
      b2=<  -0.000   0.967  -0.000 >
      b3=<   0.000   0.000   0.149 >

      Atomic Mass 
      ----------- 

      U1               238.050800
      U2               238.050800
      U3               238.050800
      U4               238.050800
      U5               238.050800
      U6               238.050800
      O1                15.994910
      O2                15.994910


          **********************************************************
          *                                                        *
          *                   NWPW BAND Calculation                *
          *                                                        *
          *  [(bundled Grassman/Stiefel manifold implementation)]  *
          *                                                        *
          *         [ NorthWest Chemistry implementation ]         *
          *                                                        *
          *                version #1.10   01/31/03                *
          *                                                        *
          *  A pseudopotential plane-wave band structure program   *
          *  with Brillouin zone sampling for optimizing crystals, *
          *  slabs, and polymers.  Developed by Eric J. Bylaska    *
          *  , Edoardo Apra, and Patrick Nichols.                  *
          *                                                        *
          **********************************************************
     >>>  JOB STARTED       AT Sun Mar 10 21:28:53 2013  <<<
          ================ input data ========================
 Error reading psi - bad unitcell
  - Ignored if the following  parameter is set
  - set nwpw:psi_nolattice .true.
 Error reading psi - bad unitcell
  - Ignored if the following  parameter is set
  - set nwpw:psi_nolattice .true.
 Error reading psi - bad unitcell
  - Ignored if the following  parameter is set
  - set nwpw:psi_nolattice .true.

 input psi filename:./perm/U6O2-100-crossctr.movecs

 Fixed ion positions:    1    2    3    4    5    6


 number of processors used:             288
 processor grid           :  36 x   1 x   8
 parallel mapping         :     2d  hilbert

 options:
      boundary conditions  = periodic    (version3)
      electron spin        = unrestricted
      exchange-correlation = PBE96 (White and Bird) parameterization

 elements involved in the cluster:
      1: U     core charge:14.0  lmax=3
             comment    : Parameterized (J.Chem. Phys. vol 128, 124507 (2008)) Troullier-Martins psp
             pseudpotential type            :   0
             highest angular component      :   3
             local potential used           :   0
             number of non-local projections:  15
             cutoff =   1.421   1.602   2.400   1.250
      2: O     core charge: 6.0  lmax=2
             comment    : Parameterized (Chem.Phys.Lett., vol 322, page 447) Hamman psp
             pseudpotential type            :   0
             highest angular component      :   2
             local potential used           :   2
             number of non-local projections:   4
             cutoff =   0.700   0.700   0.700

 total charge:   0.000

 atomic composition:
     U   :  6     O   :  2

 number of electrons: spin up=   49.00  spin down=   47.00 (fourier space)
 number of orbitals:  spin up=      49  spin down=      47 (fourier space)

 supercell:
      lattice:    a1=<   6.501   0.000   0.000 >
                  a2=<   0.000   6.501   0.000 >
                  a3=<   0.000   0.000  42.179 >
      reciprocal: b1=<   0.967   0.000  -0.000 >
                  b2=<  -0.000   0.967  -0.000 >
                  b3=<   0.000   0.000   0.149 >

      lattice:    a=   6.501    b=   6.501     c=  42.179
              alpha=  90.000 beta=  90.000 gamma=  90.000
      volume :     1782.4
      ewald summation: cut radius=    3.00  and  8
                        madelung=-3.34887517

 brillouin zone:
      number of zone points:     8
      weight=   0.125  ks=<   0.375   0.375   0.000 >, k=<   0.362   0.362  -0.000>
      weight=   0.125  ks=<   0.125   0.375   0.000 >, k=<   0.121   0.362  -0.000>
      weight=   0.125  ks=<  -0.125   0.375   0.000 >, k=<  -0.121   0.362  -0.000>
      weight=   0.125  ks=<   0.375  -0.375   0.000 >, k=<   0.362  -0.362  -0.000>
      weight=   0.125  ks=<   0.375   0.125   0.000 >, k=<   0.362   0.121  -0.000>
      weight=   0.125  ks=<   0.125   0.125   0.000 >, k=<   0.121   0.121  -0.000>
      weight=   0.125  ks=<   0.125  -0.125   0.000 >, k=<   0.121  -0.121  -0.000>
      weight=   0.125  ks=<   0.375  -0.125   0.000 >, k=<   0.362  -0.121  -0.000>

 computational grids:
      density     cutoff=180.000  fft=  64x  64x 512(   205623 waves     5711 per task)
      wavefnc   1 cutoff= 90.000  fft=  64x  64x 512(    72794 waves     2022 per task)
      wavefnc   2 cutoff= 90.000  fft=  64x  64x 512(    72667 waves     2018 per task)
      wavefnc   3 cutoff= 90.000  fft=  64x  64x 512(    72667 waves     2018 per task)
      wavefnc   4 cutoff= 90.000  fft=  64x  64x 512(    72794 waves     2022 per task)
      wavefnc   5 cutoff= 90.000  fft=  64x  64x 512(    72667 waves     2018 per task)
      wavefnc   6 cutoff= 90.000  fft=  64x  64x 512(    72659 waves     2018 per task)
      wavefnc   7 cutoff= 90.000  fft=  64x  64x 512(    72659 waves     2018 per task)
      wavefnc   8 cutoff= 90.000  fft=  64x  64x 512(    72667 waves     2018 per task)

 technical parameters:
      time step=      5.80     ficticious mass=  400000.0
      tolerance=.100E-06 (energy)   0.100E-06 (density)
      maximum iterations =      3000 (   10 inner    300 outer )



= energy calculation =


          ======== bundled Grassmann lmbfgs iteration ========
     >>>  ITERATION STARTED AT Sun Mar 10 21:33:25 2013  <<<
    iter.           Energy         DeltaE       DeltaRho 
    ------------------------------------------------------
      10   -0.3362226425E+03   -0.82609E+00    0.82750E+01
     -  10 steepest descent iterations performed
      20   -0.3393632697E+03   -0.56615E-01    0.19159E+00
     -  10 steepest descent iterations performed
      30   -0.3396784433E+03   -0.11826E-01    0.11104E-01
     -  10 steepest descent iterations performed
      40   -0.3397577462E+03   -0.42643E-02    0.43553E-02
      50   -0.3398007361E+03   -0.17024E-02    0.27919E-02
      60   -0.3398150131E+03   -0.14192E-02    0.51454E-03
      70   -0.3398257505E+03   -0.83312E-03    0.24903E-03
      80   -0.3398313439E+03   -0.44971E-03    0.10346E-03
      90   -0.3398353186E+03   -0.39465E-03    0.10152E-03
     100   -0.3398379919E+03   -0.21186E-03    0.67954E-04
     110   -0.3398399216E+03   -0.19683E-03    0.68617E-04
     120   -0.3398414385E+03   -0.12817E-03    0.65045E-04
     130   -0.3398425162E+03   -0.10359E-03    0.57014E-04
     140   -0.3398434336E+03   -0.76966E-04    0.65096E-04
     150   -0.3398440822E+03   -0.63967E-04    0.53840E-04
     160   -0.3398446284E+03   -0.48332E-04    0.60168E-04
     170   -0.3398450645E+03   -0.39839E-04    0.58485E-04
     180   -0.3398454429E+03   -0.38001E-04    0.65491E-04
     190   -0.3398457681E+03   -0.28509E-04    0.68476E-04
     200   -0.3398460532E+03   -0.28275E-04    0.74876E-04
     210   -0.3398463206E+03   -0.25328E-04    0.84866E-04
     220   -0.3398465490E+03   -0.21118E-04    0.76373E-04
     230   -0.3398467556E+03   -0.19562E-04    0.75146E-04
     240   -0.3398469291E+03   -0.16292E-04    0.61810E-04
     250   -0.3398470780E+03   -0.13962E-04    0.52091E-04
     260   -0.3398472085E+03   -0.12204E-04    0.46024E-04
     270   -0.3398473227E+03   -0.11220E-04    0.41371E-04
     280   -0.3398474256E+03   -0.94904E-05    0.39759E-04
     290   -0.3398475156E+03   -0.86427E-05    0.36030E-04
     300   -0.3398475981E+03   -0.78604E-05    0.35923E-04
     310   -0.3398476726E+03   -0.72063E-05    0.35287E-04
     320   -0.3398477416E+03   -0.66682E-05    0.36721E-04
     330   -0.3398478056E+03   -0.62080E-05    0.38386E-04
     340   -0.3398478663E+03   -0.59660E-05    0.42020E-04
     350   -0.3398479235E+03   -0.56563E-05    0.45005E-04
     360   -0.3398479798E+03   -0.56118E-05    0.51882E-04
     370   -0.3398480371E+03   -0.58473E-05    0.62602E-04
     -  10 steepest descent iterations performed
     380   -0.3398481140E+03   -0.59282E-05    0.21272E-05
     -  10 steepest descent iterations performed
     390   -0.3398481544E+03   -0.18968E-05    0.83292E-06
     400   -0.3398482164E+03   -0.67645E-05    0.14718E-04
     -  10 steepest descent iterations performed
     410   -0.3398482562E+03   -0.13057E-05    0.44543E-06
     420   -0.3398482711E+03   -0.15955E-05    0.16699E-05
     -  10 steepest descent iterations performed
     430   -0.3398482903E+03   -0.12521E-05    0.97000E-06
     440   -0.3398483145E+03   -0.26475E-05    0.86404E-05
     -  10 steepest descent iterations performed
     450   -0.3398483427E+03   -0.12387E-05    0.53018E-06
     460   -0.3398483536E+03   -0.10856E-05    0.14392E-05
     470   -0.3398484649E+03   -0.14345E-04    0.27708E-03
     -  10 steepest descent iterations performed
     480   -0.3398485638E+03   -0.29485E-05    0.48947E-06
     490   -0.3398485753E+03   -0.97939E-06    0.39943E-06
     500   -0.3398485921E+03   -0.16310E-05    0.44805E-05
     -  10 steepest descent iterations performed
     510   -0.3398486133E+03   -0.10508E-05    0.85709E-06
     520   -0.3398486300E+03   -0.19817E-05    0.45774E-05
     -  10 steepest descent iterations performed
     530   -0.3398486522E+03   -0.16215E-05    0.10254E-05
     540   -0.3398486669E+03   -0.13460E-05    0.31163E-05
     550   -0.3398487673E+03   -0.16595E-04    0.23980E-03
     -  10 steepest descent iterations performed
     560   -0.3398488757E+03   -0.30280E-05    0.47816E-06
     570   -0.3398488923E+03   -0.12208E-05    0.64153E-06
     580   -0.3398489085E+03   -0.14414E-05    0.32491E-05
     -  10 steepest descent iterations performed
     590   -0.3398489317E+03   -0.18209E-05    0.15826E-05
     -  10 steepest descent iterations performed
     600   -0.3398489487E+03   -0.14342E-05    0.18702E-05
     610   -0.3398490220E+03   -0.10529E-04    0.11020E-03
     -  10 steepest descent iterations performed
     620   -0.3398491005E+03   -0.20227E-05    0.43558E-06
     630   -0.3398491125E+03   -0.13070E-05    0.74914E-06
     640   -0.3398491399E+03   -0.17574E-05    0.10957E-04
     -  10 steepest descent iterations performed
     650   -0.3398491733E+03   -0.13364E-05    0.11108E-05
     660   -0.3398491884E+03   -0.18750E-05    0.24849E-05
     -  10 steepest descent iterations performed
     670   -0.3398492105E+03   -0.15292E-05    0.15904E-05
     680   -0.3398492327E+03   -0.19379E-05    0.67929E-05
     -  10 steepest descent iterations performed
     690   -0.3398492642E+03   -0.18896E-05    0.14309E-05
     700   -0.3398492760E+03   -0.14943E-05    0.16840E-05
     710   -0.3398494413E+03   -0.24795E-04    0.54674E-03
     -  10 steepest descent iterations performed
     720   -0.3398495823E+03   -0.24049E-05    0.29997E-06
     730   -0.3398495985E+03   -0.86574E-06    0.53794E-06
     740   -0.3398496089E+03   -0.13775E-05    0.13092E-05
     -  10 steepest descent iterations performed
     750   -0.3398496263E+03   -0.20381E-05    0.16685E-05
     -  10 steepest descent iterations performed
     760   -0.3398496394E+03   -0.12630E-05    0.10026E-05
     770   -0.3398496763E+03   -0.28034E-05    0.31288E-04
     -  10 steepest descent iterations performed
     780   -0.3398497143E+03   -0.16887E-05    0.51614E-06
     790   -0.3398497218E+03   -0.72920E-06    0.42346E-06
     800   -0.3398497410E+03   -0.28850E-05    0.86923E-05
     -  10 steepest descent iterations performed
     810   -0.3398497630E+03   -0.68254E-06    0.37149E-06
     820   -0.3398497754E+03   -0.15715E-05    0.25790E-05
     -  10 steepest descent iterations performed
     830   -0.3398497909E+03   -0.14674E-05    0.10468E-05
     840   -0.3398498014E+03   -0.10558E-05    0.21276E-05
     850   -0.3398498962E+03   -0.70681E-05    0.27985E-03
     -  10 steepest descent iterations performed
     860   -0.3398499755E+03   -0.88074E-06    0.28994E-06
     870   -0.3398499837E+03   -0.78772E-06    0.31143E-06
     880   -0.3398499898E+03   -0.58024E-06    0.69993E-06
     890   -0.3398500207E+03   -0.75143E-05    0.40367E-04
     -  10 steepest descent iterations performed
     900   -0.3398500510E+03   -0.41476E-06    0.20247E-06
     910   -0.3398500572E+03   -0.73589E-06    0.54061E-06
     -  10 steepest descent iterations performed
     920   -0.3398500642E+03   -0.76334E-06    0.71056E-06
     -  10 steepest descent iterations performed
     930   -0.3398500702E+03   -0.31374E-06    0.36069E-06
     940   -0.3398500933E+03   -0.41580E-05    0.27580E-04
     -  10 steepest descent iterations performed
     950   -0.3398501163E+03   -0.55465E-06    0.16773E-06
     960   -0.3398501200E+03   -0.42500E-06    0.28771E-06
     970   -0.3398501347E+03   -0.16118E-05    0.11192E-04
     -  10 steepest descent iterations performed
     980   -0.3398501497E+03   -0.52159E-06    0.22008E-06
     990   -0.3398501540E+03   -0.37248E-06    0.32738E-06
    1000   -0.3398501628E+03   -0.14987E-05    0.41828E-05
     -  10 steepest descent iterations performed
    1010   -0.3398501733E+03   -0.51066E-06    0.24250E-06
    1020   -0.3398501780E+03   -0.63072E-06    0.61939E-06
     -  10 steepest descent iterations performed
    1030   -0.3398501845E+03   -0.65414E-06    0.63548E-06
     -  10 steepest descent iterations performed
    1040   -0.3398501898E+03   -0.48780E-06    0.45460E-06
    1050   -0.3398502033E+03   -0.21789E-05    0.11402E-04
     -  10 steepest descent iterations performed
    1060   -0.3398502179E+03   -0.52611E-06    0.16635E-06
    1070   -0.3398502214E+03   -0.32067E-06    0.30608E-06
    1080   -0.3398502309E+03   -0.12421E-05    0.51609E-05
     -  10 steepest descent iterations performed
    1090   -0.3398502420E+03   -0.40481E-06    0.26160E-06
    1100   -0.3398502463E+03   -0.53943E-06    0.58541E-06
     -  10 steepest descent iterations performed
    1110   -0.3398502526E+03   -0.62572E-06    0.67657E-06
     -  10 steepest descent iterations performed
    1120   -0.3398502575E+03   -0.41402E-06    0.39908E-06
    1130   -0.3398502722E+03   -0.13640E-05    0.13793E-04
     -  10 steepest descent iterations performed