----------------------------------------
Begin Torque Prologue (Mon Mar 11 06:20:30 2013)
Job ID:           384927.taubm1.campuscluster.illinois.edu
Username:         davis68
Group:            npre_rizwan
Job Name:         U6O2-211-parctr
Limits:           ncpus=1,neednodes=24:ppn=12,nodes=24:ppn=12,walltime=12:00:00
Job Queue:        cse
Account:          NPRE
Nodes:            taub093 taub094 taub096 taub251 taub253 taub262 taub265 taub283 taub308 taub316 taub339 taub348 taub349 taub350 taub351 taub352 taub354 taub355 taub356 taub357 taub358 taub368 taub374 taub380
End Torque Prologue
----------------------------------------
 argument  1 = ./U6O2-211-parctr.nw



============================== echo of input deck ==============================
title "Gamma-uranium (211) adsorption"
echo

permanent_dir ./perm
scratch_dir   ./scratch

restart U6O2-211-parctr

memory 2500 mb

nwpw
  # Real-space discretization
  simulation_cell
    ngrid 36 48 210
  end

  # Spin multiplicity---quenched to 1 in the solid state
  mult 3

  # Band, k-point sampling, and parallelism
  monkhorst-pack 4 4 1
  np_dimensions 8 12 8
  mapping 2

  # Periodicity considerations
  ewald_rcut 3.0
  ewald_ncut 8

  # Simulation parameters
  #restricted    # DFT||ODFT||RESTRICTED||UNRESTRICTED
  xc pbe96
  cutoff 90.0
  loop 10 300
  tolerances 1.0e-6 1.0e-6
end
set nwpw:minimizer      2
set nwpw:lcao_skip      .true.
set nwpw:kbpp_ray       .true.
set nwpw:kbpp_filter    .true.

## Optimization ##
driver
  #clear                # Deletes all restart data
  loose               # Specify loose, default, or tight convergence
  xyz U6O2     # Output XYZ file of geometry at each stage
  maxiter 40
end
set driver:linopt 0
set nwpw:cif_filename U6O2.opt
set nwpw:psi_nolattice .true.

#       (211) gamma-uranium surface with surface displacements:	43.40%	-18.50%	and X displacement of	-0.500	Å
geometry	center	noautosym	noautoz	print
	system	crystal
	lat_a	2.97913
	lat_b	4.86259
	lat_c	20.42762
	alpha	90.0d0
	beta	90.0d0
	gamma	90.0d0
	end
	U1	0.66667	0.50000	0.68916
	U2	0.33333	0.00000	0.65024
	U3	0.00000	0.50000	0.56876
	U4	0.66667	0.00000	0.50000
	U5	0.33333	0.50000	0.41852
	U6	0.00000	0.00000	0.37960
	O1	0.16667	0.62442	0.66468
	O2	0.16667	0.37558	0.66468
end
#task band energy

nwpw
  simulation_cell
    ngrid 64 96 420
  end
end

#       (211) gamma-uranium surface with surface displacements:	43.40%	-18.50%	and X displacement of	1.750	Å
#par-ctr
geometry	center	noautosym	noautoz	print
	system	crystal
	lat_a	2.97913
	lat_b	4.86259
	lat_c	20.42762
	alpha	90.0d0
	beta	90.0d0
	gamma	90.0d0
	end
	U1	0.66667	0.50000	0.68916
	U2	0.33333	0.00000	0.65024
	U3	0.00000	0.50000	0.56876
	U4	0.66667	0.00000	0.50000
	U5	0.33333	0.50000	0.41852
	U6	0.00000	0.00000	0.37960
	O1	0.16667	0.62442	0.77483
	O2	0.16667	0.37558	0.77483
end
task band energy

#       (211) gamma-uranium surface with surface displacements:	43.40%	-18.50%	and X displacement of	2.000	Å
#par-ctr
geometry	center	noautosym	noautoz	print
	system	crystal
	lat_a	2.97913
	lat_b	4.86259
	lat_c	20.42762
	alpha	90.0d0
	beta	90.0d0
	gamma	90.0d0
	end
	U1	0.66667	0.50000	0.68916
	U2	0.33333	0.00000	0.65024
	U3	0.00000	0.50000	0.56876
	U4	0.66667	0.00000	0.50000
	U5	0.33333	0.50000	0.41852
	U6	0.00000	0.00000	0.37960
	O1	0.16667	0.62442	0.78707
	O2	0.16667	0.37558	0.78707
end
task band energy

# A.M.D.G.
================================================================================


                                         
                                         


             Northwest Computational Chemistry Package (NWChem) 6.1.1
             --------------------------------------------------------


                    Environmental Molecular Sciences Laboratory
                       Pacific Northwest National Laboratory
                                Richland, WA 99352

                              Copyright (c) 1994-2012
                       Pacific Northwest National Laboratory
                            Battelle Memorial Institute

             NWChem is an open-source computational chemistry package
                        distributed under the terms of the
                      Educational Community License (ECL) 2.0
             A copy of the license is included with this distribution
                              in the LICENSE.TXT file

                                  ACKNOWLEDGMENT
                                  --------------

            This software and its documentation were developed at the
            EMSL at Pacific Northwest National Laboratory, a multiprogram
            national laboratory, operated for the U.S. Department of Energy
            by Battelle under Contract Number DE-AC05-76RL01830. Support
            for this work was provided by the Department of Energy Office
            of Biological and Environmental Research, Office of Basic
            Energy Sciences, and the Office of Advanced Scientific Computing.


           Job information
           ---------------

    hostname        = taub380
    program         = /home/davis68/bin/nwchem-dev
    date            = Mon Mar 11 06:21:27 2013

    compiled        = Wed_Oct_03_09:41:00_2012
    source          = /home/davis68/nwchem/nwchem-src-2012-Aug-27/
    nwchem branch   = Development
    nwchem revision = 22805
    ga revision     = 10079
    input           = ./U6O2-211-parctr.nw
    prefix          = U6O2-211-parctr.
    data base       = ./perm/U6O2-211-parctr.db
    status          = restart
    nproc           =      288
    time left       =     -1s



           Memory information
           ------------------

    heap     =   81920001 doubles =    625.0 Mbytes
    stack    =   81920001 doubles =    625.0 Mbytes
    global   =  163840000 doubles =   1250.0 Mbytes (distinct from heap & stack)
    total    =  327680002 doubles =   2500.0 Mbytes
    verify   = yes
    hardfail = no 


           Directory information
           ---------------------

  0 permanent = ./perm
  0 scratch   = ./scratch


           Previous task information
           -------------------------

    Theory    = band                            
    Operation = energy                        
    Status    = ok                            
    Qmmm      = F
    Ignore    = F


           Geometries in the database
           --------------------------

       Name                              Natoms  Last Modified
       --------------------------------  ------  ------------------------
    1  geometry                               8  Fri Mar  8 16:17:29 2013  

  The geometry named "geometry" is the default for restart



           Basis sets in the database
           --------------------------

  There are no basis sets in the database



                                NWChem Input Module
                                -------------------


                          Gamma-uranium (211) adsorption
                          ------------------------------

  !!!!!!!!!  geom_3d NEEDS TESTING !!!!!!!!!! 


                             Geometry "geometry" -> ""
                             -------------------------

 Output coordinates in angstroms (scale by  1.889725989 to convert to a.u.)

  No.       Tag          Charge          X              Y              Z
 ---- ---------------- ---------- -------------- -------------- --------------
    1 U1                  92.0000     1.98609660     2.43129500    14.07789860
    2 U2                  92.0000     0.99303340     0.00000000    13.28285563
    3 U3                  92.0000     0.00000000     2.43129500    11.61841315
    4 U4                  92.0000     1.98609660     0.00000000    10.21381000
    5 U5                  92.0000     0.99303340     2.43129500     8.54936752
    6 U6                  92.0000     0.00000000     0.00000000     7.75432455
    7 O1                   8.0000     0.49653160     3.03629845    13.57783046
    8 O2                   8.0000     0.49653160     1.82629155    13.57783046

      Lattice Parameters 
      ------------------ 

      lattice vectors in angstroms (scale by  1.889725989 to convert to a.u.)

      a1=<   2.979   0.000   0.000 >
      a2=<   0.000   4.863   0.000 >
      a3=<   0.000   0.000  20.428 >
      a=       2.979 b=      4.863 c=      20.428
      alpha=  90.000 beta=  90.000 gamma=  90.000
      omega=   295.9

      reciprocal lattice vectors in a.u.

      b1=<   1.116   0.000  -0.000 >
      b2=<  -0.000   0.684  -0.000 >
      b3=<   0.000   0.000   0.163 >

      Atomic Mass 
      ----------- 

      U1               238.050800
      U2               238.050800
      U3               238.050800
      U4               238.050800
      U5               238.050800
      U6               238.050800
      O1                15.994910
      O2                15.994910


 ==============================================================================
                                internuclear distances
 ------------------------------------------------------------------------------
       center one      |      center two      | atomic units |  angstroms
 ------------------------------------------------------------------------------
    2 U2               |   1 U1               |     5.18538  |     2.74399
    3 U3               |   1 U1               |     5.97394  |     3.16127
    3 U3               |   2 U2               |     5.87570  |     3.10929
    4 U4               |   2 U2               |     6.09571  |     3.22571
    4 U4               |   3 U3               |     6.49931  |     3.43929
    5 U5               |   3 U3               |     6.09569  |     3.22570
    5 U5               |   4 U4               |     5.87572  |     3.10930
    6 U6               |   4 U4               |     5.97394  |     3.16127
    6 U6               |   5 U5               |     5.18536  |     2.74398
    7 O1               |   1 U1               |     3.18176  |     1.68372
    7 O1               |   3 U3               |     3.98723  |     2.10995
    8 O2               |   1 U1               |     3.18176  |     1.68372
    8 O2               |   2 U2               |     3.61963  |     1.91543
    8 O2               |   3 U3               |     3.98723  |     2.10995
    8 O2               |   7 O1               |     2.28658  |     1.21001
 ------------------------------------------------------------------------------
                         number of included internuclear distances:         15
 ==============================================================================



 ==============================================================================
                                 internuclear angles
 ------------------------------------------------------------------------------
        center 1       |       center 2       |       center 3       |  degrees
 ------------------------------------------------------------------------------
    1 U1               |   2 U2               |   3 U3               |    65.03
    2 U2               |   1 U1               |   7 O1               |    84.96
    1 U1               |   8 O2               |   2 U2               |    99.15
    1 U1               |   7 O1               |   3 U3               |   112.39
    1 U1               |   8 O2               |   3 U3               |   112.39
    1 U1               |   7 O1               |   8 O2               |    68.94
    1 U1               |   2 U2               |   3 U3               |    65.03
    1 U1               |   2 U2               |   4 U4               |    99.45
    2 U2               |   8 O2               |   1 U1               |    99.15
    3 U3               |   2 U2               |   4 U4               |    65.73
    2 U2               |   8 O2               |   3 U3               |   101.03
    4 U4               |   2 U2               |   8 O2               |   103.08
    3 U3               |   2 U2               |   1 U1               |    65.03
    1 U1               |   3 U3               |   4 U4               |    87.42
    1 U1               |   3 U3               |   5 U5               |   123.15
    3 U3               |   7 O1               |   1 U1               |   112.39
    3 U3               |   8 O2               |   1 U1               |   112.39
    3 U3               |   2 U2               |   4 U4               |    65.73
    2 U2               |   3 U3               |   5 U5               |   114.27
    2 U2               |   3 U3               |   7 O1               |    69.63
    3 U3               |   8 O2               |   2 U2               |   101.03
    3 U3               |   5 U5               |   4 U4               |    65.73
    4 U4               |   3 U3               |   7 O1               |   116.49
    4 U4               |   3 U3               |   8 O2               |    92.33
    5 U5               |   3 U3               |   7 O1               |   144.20
    5 U5               |   3 U3               |   8 O2               |   144.20
    3 U3               |   8 O2               |   7 O1               |    73.34
    4 U4               |   2 U2               |   3 U3               |    65.73
    2 U2               |   4 U4               |   5 U5               |   114.27
    2 U2               |   4 U4               |   6 U6               |   123.15
    4 U4               |   5 U5               |   3 U3               |    65.73
    3 U3               |   4 U4               |   6 U6               |    87.42
    4 U4               |   5 U5               |   6 U6               |    65.03
    3 U3               |   5 U5               |   4 U4               |    65.73
    3 U3               |   5 U5               |   6 U6               |    99.45
    4 U4               |   5 U5               |   6 U6               |    65.03
    6 U6               |   5 U5               |   4 U4               |    65.03
    1 U1               |   7 O1               |   3 U3               |   112.39
    1 U1               |   7 O1               |   8 O2               |    68.94
    7 O1               |   8 O2               |   3 U3               |    73.34
    1 U1               |   8 O2               |   2 U2               |    99.15
    1 U1               |   8 O2               |   3 U3               |   112.39
    8 O2               |   7 O1               |   1 U1               |    68.94
    2 U2               |   8 O2               |   3 U3               |   101.03
    2 U2               |   8 O2               |   7 O1               |   162.45
    3 U3               |   8 O2               |   7 O1               |    73.34
 ------------------------------------------------------------------------------
                            number of included internuclear angles:         46
 ==============================================================================




  !!!!!!!!!  geom_3d NEEDS TESTING !!!!!!!!!! 


                         Geometry "geometry" -> "        "
                         ---------------------------------

 Output coordinates in angstroms (scale by  1.889725989 to convert to a.u.)

  No.       Tag          Charge          X              Y              Z
 ---- ---------------- ---------- -------------- -------------- --------------
    1 U1                  92.0000     1.98609660     2.43129500    14.07789860
    2 U2                  92.0000     0.99303340     0.00000000    13.28285563
    3 U3                  92.0000     0.00000000     2.43129500    11.61841315
    4 U4                  92.0000     1.98609660     0.00000000    10.21381000
    5 U5                  92.0000     0.99303340     2.43129500     8.54936752
    6 U6                  92.0000     0.00000000     0.00000000     7.75432455
    7 O1                   8.0000     0.49653160     3.03629845    15.82793280
    8 O2                   8.0000     0.49653160     1.82629155    15.82793280

      Lattice Parameters 
      ------------------ 

      lattice vectors in angstroms (scale by  1.889725989 to convert to a.u.)

      a1=<   2.979   0.000   0.000 >
      a2=<   0.000   4.863   0.000 >
      a3=<   0.000   0.000  20.428 >
      a=       2.979 b=      4.863 c=      20.428
      alpha=  90.000 beta=  90.000 gamma=  90.000
      omega=   295.9

      reciprocal lattice vectors in a.u.

      b1=<   1.116   0.000  -0.000 >
      b2=<  -0.000   0.684  -0.000 >
      b3=<   0.000   0.000   0.163 >

      Atomic Mass 
      ----------- 

      U1               238.050800
      U2               238.050800
      U3               238.050800
      U4               238.050800
      U5               238.050800
      U6               238.050800
      O1                15.994910
      O2                15.994910


 ==============================================================================
                                internuclear distances
 ------------------------------------------------------------------------------
       center one      |      center two      | atomic units |  angstroms
 ------------------------------------------------------------------------------
    2 U2               |   1 U1               |     5.18538  |     2.74399
    3 U3               |   1 U1               |     5.97394  |     3.16127
    3 U3               |   2 U2               |     5.87570  |     3.10929
    4 U4               |   2 U2               |     6.09571  |     3.22571
    4 U4               |   3 U3               |     6.49931  |     3.43929
    5 U5               |   3 U3               |     6.09569  |     3.22570
    5 U5               |   4 U4               |     5.87572  |     3.10930
    6 U6               |   4 U4               |     5.97394  |     3.16127
    6 U6               |   5 U5               |     5.18536  |     2.74398
    7 O1               |   1 U1               |     4.49081  |     2.37644
    8 O2               |   1 U1               |     4.49081  |     2.37644
    8 O2               |   7 O1               |     2.28658  |     1.21001
 ------------------------------------------------------------------------------
                         number of included internuclear distances:         12
 ==============================================================================



 ==============================================================================
                                 internuclear angles
 ------------------------------------------------------------------------------
        center 1       |       center 2       |       center 3       |  degrees
 ------------------------------------------------------------------------------
    1 U1               |   2 U2               |   3 U3               |    65.03
    2 U2               |   1 U1               |   7 O1               |   102.25
    2 U2               |   1 U1               |   8 O2               |    76.17
    3 U3               |   1 U1               |   7 O1               |   100.32
    3 U3               |   1 U1               |   8 O2               |   100.32
    1 U1               |   8 O2               |   7 O1               |    75.25
    1 U1               |   2 U2               |   3 U3               |    65.03
    1 U1               |   2 U2               |   4 U4               |    99.45
    3 U3               |   2 U2               |   4 U4               |    65.73
    3 U3               |   2 U2               |   1 U1               |    65.03
    1 U1               |   3 U3               |   4 U4               |    87.42
    1 U1               |   3 U3               |   5 U5               |   123.15
    3 U3               |   2 U2               |   4 U4               |    65.73
    2 U2               |   3 U3               |   5 U5               |   114.27
    3 U3               |   5 U5               |   4 U4               |    65.73
    4 U4               |   2 U2               |   3 U3               |    65.73
    2 U2               |   4 U4               |   5 U5               |   114.27
    2 U2               |   4 U4               |   6 U6               |   123.15
    4 U4               |   5 U5               |   3 U3               |    65.73
    3 U3               |   4 U4               |   6 U6               |    87.42
    4 U4               |   5 U5               |   6 U6               |    65.03
    3 U3               |   5 U5               |   4 U4               |    65.73
    3 U3               |   5 U5               |   6 U6               |    99.45
    4 U4               |   5 U5               |   6 U6               |    65.03
    6 U6               |   5 U5               |   4 U4               |    65.03
    7 O1               |   8 O2               |   1 U1               |    75.25
    1 U1               |   8 O2               |   7 O1               |    75.25
 ------------------------------------------------------------------------------
                            number of included internuclear angles:         27
 ==============================================================================



          **********************************************************
          *                                                        *
          *                   NWPW BAND Calculation                *
          *                                                        *
          *  [(bundled Grassman/Stiefel manifold implementation)]  *
          *                                                        *
          *         [ NorthWest Chemistry implementation ]         *
          *                                                        *
          *                version #1.10   01/31/03                *
          *                                                        *
          *  A pseudopotential plane-wave band structure program   *
          *  with Brillouin zone sampling for optimizing crystals, *
          *  slabs, and polymers.  Developed by Eric J. Bylaska    *
          *  , Edoardo Apra, and Patrick Nichols.                  *
          *                                                        *
          **********************************************************
     >>>  JOB STARTED       AT Mon Mar 11 06:21:35 2013  <<<
          ================ input data ========================
 Brillioun Zone Vectors do not match!

 pseudopotential is not correctly formatted:U.cpp                                             

 pseudopotential is not correctly formatted---bad brillioun zone:U.cpp                                             

 Generated formatted_filename: ./perm/U.cpp
 - Spline fitted, nray=37686 -
 - filtered -
 Brillioun Zone Vectors do not match!

 pseudopotential is not correctly formatted:O.cpp                                             

 pseudopotential is not correctly formatted---bad brillioun zone:O.cpp                                             

 Generated formatted_filename: ./perm/O.cpp
 - Spline fitted, nray=37686 -
 - filtered -
 Error reading psi - bad unitcell
  - Ignored if the following  parameter is set
  - set nwpw:psi_nolattice .true.
 Error reading psi - bad unitcell
  - Ignored if the following  parameter is set
  - set nwpw:psi_nolattice .true.
 Error reading psi - bad unitcell
  - Ignored if the following  parameter is set
  - set nwpw:psi_nolattice .true.

 input psi filename:./perm/U6O2-211-parctr.movecs

 number of processors used:             288
 processor grid           :  36 x   1 x   8
 parallel mapping         :     2d  hilbert

 options:
      boundary conditions  = periodic    (version3)
      electron spin        = unrestricted
      exchange-correlation = PBE96 (White and Bird) parameterization

 elements involved in the cluster:
      1: U     core charge:14.0  lmax=3
             comment    : Parameterized (J.Chem. Phys. vol 128, 124507 (2008)) Troullier-Martins psp
             pseudpotential type            :   0
             highest angular component      :   3
             local potential used           :   0
             number of non-local projections:  15
             cutoff =   1.421   1.602   2.400   1.250
      2: O     core charge: 6.0  lmax=2
             comment    : Parameterized (Chem.Phys.Lett., vol 322, page 447) Hamman psp
             pseudpotential type            :   0
             highest angular component      :   2
             local potential used           :   2
             number of non-local projections:   4
             cutoff =   0.700   0.700   0.700

 total charge:   0.000

 atomic composition:
     U   :  6     O   :  2

 number of electrons: spin up=   49.00  spin down=   47.00 (fourier space)
 number of orbitals:  spin up=      49  spin down=      47 (fourier space)

 supercell:
      lattice:    a1=<   5.630   0.000   0.000 >
                  a2=<   0.000   9.189   0.000 >
                  a3=<   0.000   0.000  38.603 >
      reciprocal: b1=<   1.116   0.000  -0.000 >
                  b2=<  -0.000   0.684  -0.000 >
                  b3=<   0.000   0.000   0.163 >

      lattice:    a=   5.630    b=   9.189     c=  38.603
              alpha=  90.000 beta=  90.000 gamma=  90.000
      volume :     1997.0
      ewald summation: cut radius=    3.00  and  8
                        madelung=-2.04206249

 brillouin zone:
      number of zone points:     8
      weight=   0.125  ks=<   0.375   0.375   0.000 >, k=<   0.419   0.256  -0.000>
      weight=   0.125  ks=<   0.125   0.375   0.000 >, k=<   0.140   0.256  -0.000>
      weight=   0.125  ks=<  -0.125   0.375   0.000 >, k=<  -0.140   0.256  -0.000>
      weight=   0.125  ks=<   0.375  -0.375   0.000 >, k=<   0.419  -0.256  -0.000>
      weight=   0.125  ks=<   0.375   0.125   0.000 >, k=<   0.419   0.085  -0.000>
      weight=   0.125  ks=<   0.125   0.125   0.000 >, k=<   0.140   0.085  -0.000>
      weight=   0.125  ks=<   0.125  -0.125   0.000 >, k=<   0.140  -0.085  -0.000>
      weight=   0.125  ks=<   0.375  -0.125   0.000 >, k=<   0.419  -0.085  -0.000>

 computational grids:
      density     cutoff=180.000  fft=  64x  96x 420(   230205 waves     6394 per task)
      wavefnc   1 cutoff= 90.000  fft=  64x  96x 420(    81468 waves     2263 per task)
      wavefnc   2 cutoff= 90.000  fft=  64x  96x 420(    81379 waves     2260 per task)
      wavefnc   3 cutoff= 90.000  fft=  64x  96x 420(    81379 waves     2260 per task)
      wavefnc   4 cutoff= 90.000  fft=  64x  96x 420(    81468 waves     2263 per task)
      wavefnc   5 cutoff= 90.000  fft=  64x  96x 420(    81490 waves     2263 per task)
      wavefnc   6 cutoff= 90.000  fft=  64x  96x 420(    81407 waves     2261 per task)
      wavefnc   7 cutoff= 90.000  fft=  64x  96x 420(    81407 waves     2261 per task)
      wavefnc   8 cutoff= 90.000  fft=  64x  96x 420(    81490 waves     2263 per task)

 technical parameters:
      time step=      5.80     ficticious mass=  400000.0
      tolerance=.100E-05 (energy)   0.100E-05 (density)
      maximum iterations =      3000 (   10 inner    300 outer )



= energy calculation =


          ======== bundled Grassmann lmbfgs iteration ========
     >>>  ITERATION STARTED AT Mon Mar 11 06:27:11 2013  <<<
    iter.           Energy         DeltaE       DeltaRho 
    ------------------------------------------------------
      10   -0.3317983908E+03   -0.17759E+01    0.91096E+01
     -  10 steepest descent iterations performed
      20   -0.3386981596E+03   -0.12227E+00    0.34206E+00
     -  10 steepest descent iterations performed
      30   -0.3393723015E+03   -0.37928E-01    0.21245E-01
     -  10 steepest descent iterations performed
      40   -0.3395667323E+03   -0.91789E-02    0.48899E-02
      50   -0.3396884346E+03   -0.59515E-02    0.53738E-02
      60   -0.3397283822E+03   -0.31305E-02    0.16130E-02
      70   -0.3397607989E+03   -0.25247E-02    0.17229E-02
      80   -0.3397828649E+03   -0.17527E-02    0.12307E-02
      90   -0.3397977524E+03   -0.12657E-02    0.79920E-03
     100   -0.3398097326E+03   -0.10211E-02    0.62921E-03
     110   -0.3398184848E+03   -0.78579E-03    0.45230E-03
     120   -0.3398253559E+03   -0.54240E-03    0.36825E-03
     130   -0.3398311809E+03   -0.53509E-03    0.38821E-03
     140   -0.3398355385E+03   -0.37958E-03    0.27838E-03
     150   -0.3398391328E+03   -0.31184E-03    0.26964E-03
     160   -0.3398419419E+03   -0.25967E-03    0.21688E-03
     170   -0.3398442644E+03   -0.20569E-03    0.20271E-03
     180   -0.3398461982E+03   -0.18222E-03    0.18510E-03
     190   -0.3398477882E+03   -0.14747E-03    0.15640E-03
     200   -0.3398490928E+03   -0.11783E-03    0.12990E-03
     210   -0.3398502292E+03   -0.10539E-03    0.12735E-03
     220   -0.3398511812E+03   -0.87073E-04    0.12047E-03
     230   -0.3398520085E+03   -0.76870E-04    0.12612E-03
     240   -0.3398527129E+03   -0.66200E-04    0.13078E-03
     250   -0.3398533266E+03   -0.56690E-04    0.14524E-03
     260   -0.3398538787E+03   -0.54642E-04    0.17192E-03
     270   -0.3398543975E+03   -0.50566E-04    0.21028E-03
     280   -0.3398548857E+03   -0.48685E-04    0.24759E-03
     290   -0.3398553553E+03   -0.45635E-04    0.28332E-03
     300   -0.3398557908E+03   -0.41120E-04    0.27685E-03
     310   -0.3398561843E+03   -0.37408E-04    0.24226E-03
     320   -0.3398565312E+03   -0.32882E-04    0.19842E-03
     330   -0.3398568407E+03   -0.29355E-04    0.16796E-03
     340   -0.3398571259E+03   -0.27608E-04    0.15664E-03
     350   -0.3398573930E+03   -0.26228E-04    0.15661E-03
     360   -0.3398576470E+03   -0.24855E-04    0.16413E-03
     370   -0.3398578843E+03   -0.23119E-04    0.16325E-03
     380   -0.3398581050E+03   -0.21118E-04    0.15627E-03
     390   -0.3398583039E+03   -0.18614E-04    0.13652E-03
     400   -0.3398584766E+03   -0.16197E-04    0.10776E-03
     410   -0.3398586260E+03   -0.13876E-04    0.83319E-04
     420   -0.3398587556E+03   -0.12303E-04    0.65828E-04
     430   -0.3398588719E+03   -0.10987E-04    0.55704E-04
     440   -0.3398589766E+03   -0.10106E-04    0.48641E-04