----------------------------------------
Begin Torque Prologue (Sun Mar 10 04:04:22 2013)
Job ID:           384875.taubm1.campuscluster.illinois.edu
Username:         davis68
Group:            npre_rizwan
Job Name:         U6O2-100-crossctr
Limits:           ncpus=1,neednodes=24:ppn=12,nodes=24:ppn=12,walltime=12:00:00
Job Queue:        cse
Account:          NPRE
Nodes:            taub348 taub349 taub350 taub351 taub353 taub354 taub355 taub356 taub357 taub358 taub359 taub362 taub363 taub364 taub377 taub454 taub456 taub485 taub487 taub488 taub492 taub496 taub497 taub512
End Torque Prologue
----------------------------------------
 argument  1 = ./U6O2-100-crossctr.nw



============================== echo of input deck ==============================
title "Gamma-uranium (100) adsorption"
echo

permanent_dir ./perm
scratch_dir   ./scratch

restart U6O2-100-crossctr

memory 2500 mb

nwpw
  # Real-space discretization
  simulation_cell
    ngrid 36 36 256
  end

  # Spin multiplicity---quenched to 1 in the solid state
  mult 3

  # Band, k-point sampling, and parallelism
  monkhorst-pack 4 4 1
  np_dimensions 8 12 8
  mapping 2

  # Periodicity considerations
  ewald_rcut 3.0
  ewald_ncut 8

  # Simulation parameters
  #restricted    # DFT||ODFT||RESTRICTED||UNRESTRICTED
  xc pbe96
  cutoff 90.0
  loop 10 300
  tolerances 1.0e-6 1.0e-6
end
set nwpw:minimizer      2
set nwpw:lcao_skip      .true.
set nwpw:kbpp_ray       .true.
set nwpw:kbpp_filter    .true.

## Optimization ##
driver
  #clear                # Deletes all restart data
  loose               # Specify loose, default, or tight convergence
  xyz U6O2     # Output XYZ file of geometry at each stage
  maxiter 40
end
set driver:linopt 0
set nwpw:cif_filename U6O2.opt
set nwpw:psi_nolattice .true.

#       (100) gamma-uranium surface with surface displacements:	29.7%	-15.3%	and X displacement of	-0.50	Å
geometry	center	noautosym	noautoz	print
	system	crystal
	lat_a	3.44
	lat_b	3.44
	lat_c	22.32
	alpha	90.0d0
	beta	90.0d0
	gamma	90.0d0
	end
	U1	0.50000	0.50000	0.72009
	U2	0.00000	0.00000	0.66591
	U3	0.50000	0.50000	0.57706
	U4	0.00000	0.00000	0.50000
	U5	0.50000	0.50000	0.41115
	U6	0.00000	0.00000	0.35697
	O1	0.12436	0.87564	0.69768
	O2	0.87564	0.12436	0.69768
end
#task band energy

nwpw
  simulation_cell
    ngrid 64 64 512
  end
end

#       (100) gamma-uranium surface with surface displacements:	29.7%	-15.3%	and X displacement of	2.00	Å
#cross-brg
geometry	center	noautosym	noautoz	print
	system	crystal
	lat_a	3.44
	lat_b	3.44
	lat_c	22.32
	alpha	90.0d0
	beta	90.0d0
	gamma	90.0d0
	end
	U1	0.50000	0.50000	0.72009
	U2	0.00000	0.00000	0.66591
	U3	0.50000	0.50000	0.57706
	U4	0.00000	0.00000	0.50000
	U5	0.50000	0.50000	0.41115
	U6	0.00000	0.00000	0.35697
	O1	0.37436	0.12564	0.80969
	O2	0.12564	0.37436	0.80969
end
task band energy

#       (100) gamma-uranium surface with surface displacements:	29.7%	-15.3%	and X displacement of	1.75	Å
#cross-ctr
geometry	center	noautosym	noautoz	print
	system	crystal
	lat_a	3.44
	lat_b	3.44
	lat_c	22.32
	alpha	90.0d0
	beta	90.0d0
	gamma	90.0d0
	end
	U1	0.50000	0.50000	0.72009
	U2	0.00000	0.00000	0.66591
	U3	0.50000	0.50000	0.57706
	U4	0.00000	0.00000	0.50000
	U5	0.50000	0.50000	0.41115
	U6	0.00000	0.00000	0.35697
	O1	0.12436	0.87564	0.79849
	O2	0.87564	0.12436	0.79849
end
task band energy

# A.M.D.G.
================================================================================


                                         
                                         


             Northwest Computational Chemistry Package (NWChem) 6.1.1
             --------------------------------------------------------


                    Environmental Molecular Sciences Laboratory
                       Pacific Northwest National Laboratory
                                Richland, WA 99352

                              Copyright (c) 1994-2012
                       Pacific Northwest National Laboratory
                            Battelle Memorial Institute

             NWChem is an open-source computational chemistry package
                        distributed under the terms of the
                      Educational Community License (ECL) 2.0
             A copy of the license is included with this distribution
                              in the LICENSE.TXT file

                                  ACKNOWLEDGMENT
                                  --------------

            This software and its documentation were developed at the
            EMSL at Pacific Northwest National Laboratory, a multiprogram
            national laboratory, operated for the U.S. Department of Energy
            by Battelle under Contract Number DE-AC05-76RL01830. Support
            for this work was provided by the Department of Energy Office
            of Biological and Environmental Research, Office of Basic
            Energy Sciences, and the Office of Advanced Scientific Computing.


           Job information
           ---------------

    hostname        = taub512
    program         = /home/davis68/bin/nwchem-dev
    date            = Sun Mar 10 04:04:26 2013

    compiled        = Wed_Oct_03_09:41:00_2012
    source          = /home/davis68/nwchem/nwchem-src-2012-Aug-27/
    nwchem branch   = Development
    nwchem revision = 22805
    ga revision     = 10079
    input           = ./U6O2-100-crossctr.nw
    prefix          = U6O2-100-crossctr.
    data base       = ./perm/U6O2-100-crossctr.db
    status          = restart
    nproc           =      288
    time left       =     -1s



           Memory information
           ------------------

    heap     =   81920001 doubles =    625.0 Mbytes
    stack    =   81920001 doubles =    625.0 Mbytes
    global   =  163840000 doubles =   1250.0 Mbytes (distinct from heap & stack)
    total    =  327680002 doubles =   2500.0 Mbytes
    verify   = yes
    hardfail = no 


           Directory information
           ---------------------

  0 permanent = ./perm
  0 scratch   = ./scratch

rtdb_seq_open: ./perm/U6O2-100-crossctr.db does not exist, cannot open old

 ------------------------------------------------------------------------
 start: rtdb_open old failed         0
 ------------------------------------------------------------------------
 An error occured in the Runtime Database
 ------------------------------------------------------------------------
 For more information see the NWChem manual at http://www.nwchem-sw.org/index.php/NWChem_Documentation


 For further details see manual section:                                                                                                                                                                                                                                                                
 start: rtdb_open old failed         0
 ------------------------------------------------------------------------
 An error occured in the Runtime Database
 ------------------------------------------------------------------------
 For more information see the NWChem manual at http://www.nwchem-sw.org/index.php/NWChem_Documentation


 For further details see manual section:                                                                                                                                                                                                                                                                
 start: rtdb_open old failed         0
 ------------------------------------------------------------------------
 An error occured in the Runtime Database
 ------------------------------------------------------------------------
 For more information see the NWChem manual at http://www.nwchem-sw.org/index.php/NWChem_Documentation


 For further details see manual section:                                                                                                                                                                                                                                                                
0:0:start: rtdb_open old failed:: 0
 start: rtdb_open old failed         0
 ------------------------------------------------------------------------
 An error occured in the Runtime Database
 ------------------------------------------------------------------------
 For more information see the NWChem manual at http://www.nwchem-sw.org/index.php/NWChem_Documentation


 For further details see manual section:                                                                                                                                                                                                                                                                
 start: rtdb_open old failed         0
 ------------------------------------------------------------------------
 An error occured in the Runtime Database
 ------------------------------------------------------------------------
 For more information see the NWChem manual at http://www.nwchem-sw.org/index.php/NWChem_Documentation


 For further details see manual section:                                                                                                                                                                                                                                                                
(rank:0 hostname:taub512 pid:5068):ARMCI DASSERT fail. ../../ga-5-1/armci/src/common/armci.c:ARMCI_Error():208 cond:0
Last System Error Message from Task 0:: No such file or directory
11:11:start: rtdb_open old failed:: 0
 start: rtdb_open old failed         0
 ------------------------------------------------------------------------
 An error occured in the Runtime Database
 ------------------------------------------------------------------------
 For more information see the NWChem manual at http://www.nwchem-sw.org/index.php/NWChem_Documentation


 For further details see manual section:                                                                                                                                                                                                                                                                
(rank:11 hostname:taub512 pid:5079):ARMCI DASSERT fail. ../../ga-5-1/armci/src/common/armci.c:ARMCI_Error():208 cond:0
Last System Error Message from Task 11:: No such file or directory
5:5:start: rtdb_open old failed:: 0
(rank:5 hostname:taub512 pid:5073):ARMCI DASSERT fail. ../../ga-5-1/armci/src/common/armci.c:ARMCI_Error():208 cond:0
Last System Error Message from Task 5:: No such file or directory
 start: rtdb_open old failed         0
 ------------------------------------------------------------------------
 An error occured in the Runtime Database
 ------------------------------------------------------------------------
 For more information see the NWChem manual at http://www.nwchem-sw.org/index.php/NWChem_Documentation


 For further details see manual section:                                                                                                                                                                                                                                                                
 start: rtdb_open old failed         0
 ------------------------------------------------------------------------
 An error occured in the Runtime Database
 ------------------------------------------------------------------------
 For more information see the NWChem manual at http://www.nwchem-sw.org/index.php/NWChem_Documentation


 For further details see manual section:                                                                                                                                                                                                                                                                
 start: rtdb_open old failed         0
 ------------------------------------------------------------------------
 An error occured in the Runtime Database
 ------------------------------------------------------------------------
 For more information see the NWChem manual at http://www.nwchem-sw.org/index.php/NWChem_Documentation


 For further details see manual section:                                                                                                                                                                                                                                                                
 start: rtdb_open old failed         0
 ------------------------------------------------------------------------
 An error occured in the Runtime Database
 ------------------------------------------------------------------------
 For more information see the NWChem manual at http://www.nwchem-sw.org/index.php/NWChem_Documentation


 For further details see manual section:                                                                                                                                                                                                                                                                
 start: rtdb_open old failed         0
 ------------------------------------------------------------------------
 An error occured in the Runtime Database
 ------------------------------------------------------------------------
 For more information see the NWChem manual at http://www.nwchem-sw.org/index.php/NWChem_Documentation


 For further details see manual section:                                                                                                                                                                                                                                                                
10:10:start: rtdb_open old failed:: 0
(rank:10 hostname:taub512 pid:5078):ARMCI DASSERT fail. ../../ga-5-1/armci/src/common/armci.c:ARMCI_Error():208 cond:0
2:2:start: rtdb_open old failed:: 0
(rank:2 hostname:taub512 pid:5070):ARMCI DASSERT fail. ../../ga-5-1/armci/src/common/armci.c:ARMCI_Error():208 cond:0
Last System Error Message from Task 10:: No such file or directory
Last System Error Message from Task 2:: No such file or directory
3:3:start: rtdb_open old failed:: 0
(rank:3 hostname:taub512 pid:5071):ARMCI DASSERT fail. ../../ga-5-1/armci/src/common/armci.c:ARMCI_Error():208 cond:0
Last System Error Message from Task 3:: No such file or directory
4:4:start: rtdb_open old failed:: 0
(rank:4 hostname:taub512 pid:5072):ARMCI DASSERT fail. ../../ga-5-1/armci/src/common/armci.c:ARMCI_Error():208 cond:0
6:6:start: rtdb_open old failed:: 0
(rank:6 hostname:taub512 pid:5074):ARMCI DASSERT fail. ../../ga-5-1/armci/src/common/armci.c:ARMCI_Error():208 cond:0
1:1:start: rtdb_open old failed:: 0
(rank:1 hostname:taub512 pid:5069):ARMCI DASSERT fail. ../../ga-5-1/armci/src/common/armci.c:ARMCI_Error():208 cond:0
Last System Error Message from Task 4:: No such file or directory
Last System Error Message from Task 6:: No such file or directory
 start: rtdb_open old failed         0
 ------------------------------------------------------------------------
 An error occured in the Runtime Database
 ------------------------------------------------------------------------
 For more information see the NWChem manual at http://www.nwchem-sw.org/index.php/NWChem_Documentation


 For further details see manual section:                                                                                                                                                                                                                                                                
7:7:start: rtdb_open old failed:: 0
(rank:7 hostname:taub512 pid:5075):ARMCI DASSERT fail. ../../ga-5-1/armci/src/common/armci.c:ARMCI_Error():208 cond:0
8:8:start: rtdb_open old failed:: 0
(rank:8 hostname:taub512 pid:5076):ARMCI DASSERT fail. ../../ga-5-1/armci/src/common/armci.c:ARMCI_Error():208 cond:0
Last System Error Message from Task 8:: No such file or directory
9:9:start: rtdb_open old failed:: 0
(rank:9 hostname:taub512 pid:5077):ARMCI DASSERT fail. ../../ga-5-1/armci/src/common/armci.c:ARMCI_Error():208 cond:0
Last System Error Message from Task 9:: No such file or directory
Last System Error Message from Task 1:: No such file or directory
Last System Error Message from Task 7:: No such file or directory
application called MPI_Abort(comm=0x84000003, 0) - process 5
application called MPI_Abort(comm=0x84000003, 0) - process 11
application called MPI_Abort(comm=0x84000003, 0) - process 1
application called MPI_Abort(comm=0x84000003, 0) - process 3
application called MPI_Abort(comm=0x84000003, 0) - process 8
application called MPI_Abort(comm=0x84000003, 0) - process 6
application called MPI_Abort(comm=0x84000003, 0) - process 10
application called MPI_Abort(comm=0x84000003, 0) - process 9
application called MPI_Abort(comm=0x84000003, 0) - process 7
application called MPI_Abort(comm=0x84000005, 0) - process 0
application called MPI_Abort(comm=0x84000003, 0) - process 2
application called MPI_Abort(comm=0x84000003, 0) - process 4
 start: rtdb_open old failed         0
 ------------------------------------------------------------------------
 An error occured in the Runtime Database
 ------------------------------------------------------------------------
 For more information see the NWChem manual at http://www.nwchem-sw.org/index.php/NWChem_Documentation


 For further details see manual section:                                                                                                                                                                                                                                                                
25:25:start: rtdb_open old failed:: 0
 start: rtdb_open old failed         0
 ------------------------------------------------------------------------
 An error occured in the Runtime Database
 ------------------------------------------------------------------------
 For more information see the NWChem manual at http://www.nwchem-sw.org/index.php/NWChem_Documentation


 For further details see manual section:                                                                                                                                                                                                                                                                
275:275:start: rtdb_open old failed:: 0
(rank:275 hostname:taub349 pid:3217):ARMCI DASSERT fail. ../../ga-5-1/armci/src/common/armci.c:ARMCI_Error():208 cond:0
 start: rtdb_open old failed         0
 ------------------------------------------------------------------------
 An error occured in the Runtime Database
 ------------------------------------------------------------------------
 For more information see the NWChem manual at http://www.nwchem-sw.org/index.php/NWChem_Documentation


 For further details see manual section:                                                                                                                                                                                                                                                                
12:12:start: rtdb_open old failed:: 0
(rank:12 hostname:taub497 pid:18967):ARMCI DASSERT fail. ../../ga-5-1/armci/src/common/armci.c:ARMCI_Error():208 cond:0
Last System Error Message from Task 12:: No such file or directory
 start: rtdb_open old failed         0
 ------------------------------------------------------------------------
 An error occured in the Runtime Database
 ------------------------------------------------------------------------
 For more information see the NWChem manual at http://www.nwchem-sw.org/index.php/NWChem_Documentation


 For further details see manual section:                                                                                                                                                                                                                                                                
24:24:start: rtdb_open old failed:: 0
(rank:24 hostname:taub496 pid:17168):ARMCI DASSERT fail. ../../ga-5-1/armci/src/common/armci.c:ARMCI_Error():208 cond:0
Last System Error Message from Task 24:: No such file or directory
 start: rtdb_open old failed         0
 ------------------------------------------------------------------------
 An error occured in the Runtime Database
 ------------------------------------------------------------------------
 For more information see the NWChem manual at http://www.nwchem-sw.org/index.php/NWChem_Documentation


 For further details see manual section:                                                                                                                                                                                                                                                                
36:36:start: rtdb_open old failed:: 0
(rank:36 hostname:taub492 pid:31673):ARMCI DASSERT fail. ../../ga-5-1/armci/src/common/armci.c:ARMCI_Error():208 cond:0
Last System Error Message from Task 36:: No such file or directory
 start: rtdb_open old failed         0
 ------------------------------------------------------------------------
 An error occured in the Runtime Database
 ------------------------------------------------------------------------
 For more information see the NWChem manual at http://www.nwchem-sw.org/index.php/NWChem_Documentation


 For further details see manual section:                                                                                                                                                                                                                                                                
48:48:start: rtdb_open old failed:: 0
(rank:48 hostname:taub488 pid:4948):ARMCI DASSERT fail. ../../ga-5-1/armci/src/common/armci.c:ARMCI_Error():208 cond:0
 start: rtdb_open old failed         0
 ------------------------------------------------------------------------
 An error occured in the Runtime Database
 ------------------------------------------------------------------------
 For more information see the NWChem manual at http://www.nwchem-sw.org/index.php/NWChem_Documentation


 For further details see manual section:                                                                                                                                                                                                                                                                
13:13:start: rtdb_open old failed:: 0
(rank:13 hostname:taub497 pid:18968):ARMCI DASSERT fail. ../../ga-5-1/armci/src/common/armci.c:ARMCI_Error():208 cond:0
Last System Error Message from Task 48:: No such file or directory
Last System Error Message from Task 13:: No such file or directory
(rank:25 hostname:taub496 pid:17169):ARMCI DASSERT fail. ../../ga-5-1/armci/src/common/armci.c:ARMCI_Error():208 cond:0
Last System Error Message from Task 60:: No such file or directory
 start: rtdb_open old failed         0
 ------------------------------------------------------------------------
 An error occured in the Runtime Database
 ------------------------------------------------------------------------
 For more information see the NWChem manual at http://www.nwchem-sw.org/index.php/NWChem_Documentation


 For further details see manual section:                                                                                                                                                                                                                                                                
60:60:start: rtdb_open old failed:: 0
(rank:60 hostname:taub487 pid:8666):ARMCI DASSERT fail. ../../ga-5-1/armci/src/common/armci.c:ARMCI_Error():208 cond:0
Last System Error Message from Task 25:: No such file or directory
 start: rtdb_open old failed         0
 ------------------------------------------------------------------------
 An error occured in the Runtime Database
 ------------------------------------------------------------------------
 For more information see the NWChem manual at http://www.nwchem-sw.org/index.php/NWChem_Documentation


 For further details see manual section:                                                                                                                                                                                                                                                                
14:14:start: rtdb_open old failed:: 0
(rank:14 hostname:taub497 pid:18969):ARMCI DASSERT fail. ../../ga-5-1/armci/src/common/armci.c:ARMCI_Error():208 cond:0
Last System Error Message from Task 14:: No such file or directory
 start: rtdb_open old failed         0
 ------------------------------------------------------------------------
 An error occured in the Runtime Database
 ------------------------------------------------------------------------
 For more information see the NWChem manual at http://www.nwchem-sw.org/index.php/NWChem_Documentation


 For further details see manual section:                                                                                                                                                                                                                                                                
72:72:start: rtdb_open old failed:: 0
(rank:72 hostname:taub485 pid:2516):ARMCI DASSERT fail. ../../ga-5-1/armci/src/common/armci.c:ARMCI_Error():208 cond:0
Last System Error Message from Task 72:: No such file or directory
 start: rtdb_open old failed         0
 ------------------------------------------------------------------------
 An error occured in the Runtime Database
 ------------------------------------------------------------------------
 For more information see the NWChem manual at http://www.nwchem-sw.org/index.php/NWChem_Documentation


 For further details see manual section:                                                                                                                                                                                                                                                                
26:26:start: rtdb_open old failed:: 0
(rank:26 hostname:taub496 pid:17170):ARMCI DASSERT fail. ../../ga-5-1/armci/src/common/armci.c:ARMCI_Error():208 cond:0
 start: rtdb_open old failed         0
 ------------------------------------------------------------------------
 An error occured in the Runtime Database
 ------------------------------------------------------------------------
 For more information see the NWChem manual at http://www.nwchem-sw.org/index.php/NWChem_Documentation


 For further details see manual section:                                                                                                                                                                                                                                                                
37:37:start: rtdb_open old failed:: 0
(rank:37 hostname:taub492 pid:31674):ARMCI DASSERT fail. ../../ga-5-1/armci/src/common/armci.c:ARMCI_Error():208 cond:0
Last System Error Message from Task 37:: No such file or directory
Last System Error Message from Task 26:: No such file or directory
 start: rtdb_open old failed         0
 ------------------------------------------------------------------------
 An error occured in the Runtime Database
 ------------------------------------------------------------------------
 For more information see the NWChem manual at http://www.nwchem-sw.org/index.php/NWChem_Documentation


 For further details see manual section:                                                                                                                                                                                                                                                                
38:38:start: rtdb_open old failed:: 0
(rank:38 hostname:taub492 pid:31675):ARMCI DASSERT fail. ../../ga-5-1/armci/src/common/armci.c:ARMCI_Error():208 cond:0
 start: rtdb_open old failed         0
 ------------------------------------------------------------------------
 An error occured in the Runtime Database
 ------------------------------------------------------------------------
 For more information see the NWChem manual at http://www.nwchem-sw.org/index.php/NWChem_Documentation


 For further details see manual section:                                                                                                                                                                                                                                                                
27:27:start: rtdb_open old failed:: 0
(rank:27 hostname:taub496 pid:17171):ARMCI DASSERT fail. ../../ga-5-1/armci/src/common/armci.c:ARMCI_Error():208 cond:0
Last System Error Message from Task 38:: No such file or directory
Last System Error Message from Task 27:: No such file or directory
 start: rtdb_open old failed         0
 ------------------------------------------------------------------------
 An error occured in the Runtime Database
 ------------------------------------------------------------------------
 For more information see the NWChem manual at http://www.nwchem-sw.org/index.php/NWChem_Documentation


 For further details see manual section:                                                                                                                                                                                                                                                                
84:84:start: rtdb_open old failed:: 0
(rank:84 hostname:taub456 pid:31997):ARMCI DASSERT fail. ../../ga-5-1/armci/src/common/armci.c:ARMCI_Error():208 cond:0
 start: rtdb_open old failed         0
 ------------------------------------------------------------------------
 An error occured in the Runtime Database