----------------------------------------
Begin Torque Prologue (Mon Mar 11 07:47:26 2013)
Job ID:           384925.taubm1.campuscluster.illinois.edu
Username:         davis68
Group:            npre_rizwan
Job Name:         U6O2-100-crossctr
Limits:           ncpus=1,neednodes=24:ppn=12,nodes=24:ppn=12,walltime=12:00:00
Job Queue:        cse
Account:          NPRE
Nodes:            taub433 taub434 taub436 taub440 taub442 taub448 taub449 taub453 taub454 taub471 taub476 taub477 taub479 taub492 taub493 taub494 taub496 taub497 taub498 taub502 taub509 taub510 taub511 taub512
End Torque Prologue
----------------------------------------
 argument  1 = ./U6O2-100-crossctr.nw



============================== echo of input deck ==============================
title "Gamma-uranium (100) adsorption"
echo

permanent_dir ./perm
scratch_dir   ./scratch

restart U6O2-100-crossctr

memory 2500 mb

nwpw
  # Real-space discretization
  simulation_cell
    ngrid 36 36 256
  end

  # Spin multiplicity---quenched to 1 in the solid state
  mult 3

  # Band, k-point sampling, and parallelism
  monkhorst-pack 4 4 1
  np_dimensions 8 12 8
  mapping 2

  # Periodicity considerations
  ewald_rcut 3.0
  ewald_ncut 8

  # Simulation parameters
  #restricted    # DFT||ODFT||RESTRICTED||UNRESTRICTED
  xc pbe96
  cutoff 90.0
  loop 10 300
  tolerances 1.0e-6 1.0e-6
end
set nwpw:minimizer      2
set nwpw:lcao_skip      .true.
set nwpw:kbpp_ray       .true.
set nwpw:kbpp_filter    .true.

## Optimization ##
driver
  #clear                # Deletes all restart data
  loose               # Specify loose, default, or tight convergence
  xyz U6O2     # Output XYZ file of geometry at each stage
  maxiter 40
end
set driver:linopt 0
set nwpw:cif_filename U6O2.opt
set nwpw:psi_nolattice .true.

#       (100) gamma-uranium surface with surface displacements:	29.7%	-15.3%	and X displacement of	-0.50	Å
geometry	center	noautosym	noautoz	print
	system	crystal
	lat_a	3.44
	lat_b	3.44
	lat_c	22.32
	alpha	90.0d0
	beta	90.0d0
	gamma	90.0d0
	end
	U1	0.50000	0.50000	0.72009
	U2	0.00000	0.00000	0.66591
	U3	0.50000	0.50000	0.57706
	U4	0.00000	0.00000	0.50000
	U5	0.50000	0.50000	0.41115
	U6	0.00000	0.00000	0.35697
	O1	0.12436	0.87564	0.69768
	O2	0.87564	0.12436	0.69768
end
#task band energy

nwpw
  simulation_cell
    ngrid 64 64 512
  end
end

#       (100) gamma-uranium surface with surface displacements:	29.7%	-15.3%	and X displacement of	2.00	Å
#cross-brg
geometry	center	noautosym	noautoz	print
	system	crystal
	lat_a	3.44
	lat_b	3.44
	lat_c	22.32
	alpha	90.0d0
	beta	90.0d0
	gamma	90.0d0
	end
	U1	0.50000	0.50000	0.72009
	U2	0.00000	0.00000	0.66591
	U3	0.50000	0.50000	0.57706
	U4	0.00000	0.00000	0.50000
	U5	0.50000	0.50000	0.41115
	U6	0.00000	0.00000	0.35697
	O1	0.37436	0.12564	0.80969
	O2	0.12564	0.37436	0.80969
end
task band energy

#       (100) gamma-uranium surface with surface displacements:	29.7%	-15.3%	and X displacement of	1.75	Å
#cross-ctr
geometry	center	noautosym	noautoz	print
	system	crystal
	lat_a	3.44
	lat_b	3.44
	lat_c	22.32
	alpha	90.0d0
	beta	90.0d0
	gamma	90.0d0
	end
	U1	0.50000	0.50000	0.72009
	U2	0.00000	0.00000	0.66591
	U3	0.50000	0.50000	0.57706
	U4	0.00000	0.00000	0.50000
	U5	0.50000	0.50000	0.41115
	U6	0.00000	0.00000	0.35697
	O1	0.12436	0.87564	0.79849
	O2	0.87564	0.12436	0.79849
end
task band energy

# A.M.D.G.
================================================================================


                                         
                                         


             Northwest Computational Chemistry Package (NWChem) 6.1.1
             --------------------------------------------------------


                    Environmental Molecular Sciences Laboratory
                       Pacific Northwest National Laboratory
                                Richland, WA 99352

                              Copyright (c) 1994-2012
                       Pacific Northwest National Laboratory
                            Battelle Memorial Institute

             NWChem is an open-source computational chemistry package
                        distributed under the terms of the
                      Educational Community License (ECL) 2.0
             A copy of the license is included with this distribution
                              in the LICENSE.TXT file

                                  ACKNOWLEDGMENT
                                  --------------

            This software and its documentation were developed at the
            EMSL at Pacific Northwest National Laboratory, a multiprogram
            national laboratory, operated for the U.S. Department of Energy
            by Battelle under Contract Number DE-AC05-76RL01830. Support
            for this work was provided by the Department of Energy Office
            of Biological and Environmental Research, Office of Basic
            Energy Sciences, and the Office of Advanced Scientific Computing.


           Job information
           ---------------

    hostname        = taub512
    program         = /home/davis68/bin/nwchem-dev
    date            = Mon Mar 11 07:48:05 2013

    compiled        = Wed_Oct_03_09:41:00_2012
    source          = /home/davis68/nwchem/nwchem-src-2012-Aug-27/
    nwchem branch   = Development
    nwchem revision = 22805
    ga revision     = 10079
    input           = ./U6O2-100-crossctr.nw
    prefix          = U6O2-100-crossctr.
    data base       = ./perm/U6O2-100-crossctr.db
    status          = restart
    nproc           =      288
    time left       =     -1s



           Memory information
           ------------------

    heap     =   81920001 doubles =    625.0 Mbytes
    stack    =   81920001 doubles =    625.0 Mbytes
    global   =  163840000 doubles =   1250.0 Mbytes (distinct from heap & stack)
    total    =  327680002 doubles =   2500.0 Mbytes
    verify   = yes
    hardfail = no 


           Directory information
           ---------------------

  0 permanent = ./perm
  0 scratch   = ./scratch


           Previous task information
           -------------------------

    Theory    = band                            
    Operation = energy                        
    Status    = ok                            
    Qmmm      = F
    Ignore    = F


           Geometries in the database
           --------------------------

       Name                              Natoms  Last Modified
       --------------------------------  ------  ------------------------
    1  geometry                               8  Fri Mar  8 15:20:34 2013  

  The geometry named "geometry" is the default for restart



           Basis sets in the database
           --------------------------

  There are no basis sets in the database



                                NWChem Input Module
                                -------------------


                          Gamma-uranium (100) adsorption
                          ------------------------------

  !!!!!!!!!  geom_3d NEEDS TESTING !!!!!!!!!! 


                             Geometry "geometry" -> ""
                             -------------------------

 Output coordinates in angstroms (scale by  1.889725989 to convert to a.u.)

  No.       Tag          Charge          X              Y              Z
 ---- ---------------- ---------- -------------- -------------- --------------
    1 U1                  92.0000     1.72000000     1.72000000    16.07240880
    2 U2                  92.0000     0.00000000     0.00000000    14.86311120
    3 U3                  92.0000     1.72000000     1.72000000    12.87997920
    4 U4                  92.0000     0.00000000     0.00000000    11.16000000
    5 U5                  92.0000     1.72000000     1.72000000     9.17686800
    6 U6                  92.0000     0.00000000     0.00000000     7.96757040
    7 O1                   8.0000     0.42779840     3.01220160    15.57221760
    8 O2                   8.0000     3.01220160     0.42779840    15.57221760

      Lattice Parameters 
      ------------------ 

      lattice vectors in angstroms (scale by  1.889725989 to convert to a.u.)

      a1=<   3.440   0.000   0.000 >
      a2=<   0.000   3.440   0.000 >
      a3=<   0.000   0.000  22.320 >
      a=       3.440 b=      3.440 c=      22.320
      alpha=  90.000 beta=  90.000 gamma=  90.000
      omega=   264.1

      reciprocal lattice vectors in a.u.

      b1=<   0.967   0.000  -0.000 >
      b2=<  -0.000   0.967  -0.000 >
      b3=<   0.000   0.000   0.149 >

      Atomic Mass 
      ----------- 

      U1               238.050800
      U2               238.050800
      U3               238.050800
      U4               238.050800
      U5               238.050800
      U6               238.050800
      O1                15.994910
      O2                15.994910


 ==============================================================================
                                internuclear distances
 ------------------------------------------------------------------------------
       center one      |      center two      | atomic units |  angstroms
 ------------------------------------------------------------------------------
    2 U2               |   1 U1               |     5.13338  |     2.71647
    3 U3               |   1 U1               |     6.03282  |     3.19243
    3 U3               |   2 U2               |     5.93073  |     3.13841
    4 U4               |   2 U2               |     6.99787  |     3.70311
    4 U4               |   3 U3               |     5.62971  |     2.97912
    5 U5               |   3 U3               |     6.99787  |     3.70311
    5 U5               |   4 U4               |     5.93073  |     3.13841
    6 U6               |   4 U4               |     6.03282  |     3.19243
    6 U6               |   5 U5               |     5.13338  |     2.71647
    7 O1               |   1 U1               |     3.58040  |     1.89467
    8 O2               |   1 U1               |     3.58040  |     1.89467
 ------------------------------------------------------------------------------
                         number of included internuclear distances:         11
 ==============================================================================



 ==============================================================================
                                 internuclear angles
 ------------------------------------------------------------------------------
        center 1       |       center 2       |       center 3       |  degrees
 ------------------------------------------------------------------------------
    1 U1               |   2 U2               |   3 U3               |    65.62
    2 U2               |   1 U1               |   7 O1               |    83.25
    2 U2               |   1 U1               |   8 O2               |    83.25
    3 U3               |   1 U1               |   7 O1               |    74.69
    3 U3               |   1 U1               |   8 O2               |    74.69
    7 O1               |   1 U1               |   8 O2               |   149.38
    1 U1               |   2 U2               |   3 U3               |    65.62
    1 U1               |   2 U2               |   4 U4               |   116.43
    2 U2               |   3 U3               |   4 U4               |    74.45
    3 U3               |   2 U2               |   1 U1               |    65.62
    1 U1               |   3 U3               |   4 U4               |   125.26
    1 U1               |   3 U3               |   5 U5               |   180.00
    2 U2               |   3 U3               |   4 U4               |    74.45
    2 U2               |   3 U3               |   5 U5               |   129.19
    3 U3               |   4 U4               |   5 U5               |    74.45
    4 U4               |   3 U3               |   2 U2               |    74.45
    2 U2               |   4 U4               |   5 U5               |   129.19
    2 U2               |   4 U4               |   6 U6               |   180.00
    3 U3               |   4 U4               |   5 U5               |    74.45
    3 U3               |   4 U4               |   6 U6               |   125.26
    4 U4               |   5 U5               |   6 U6               |    65.62
    5 U5               |   4 U4               |   3 U3               |    74.45
    3 U3               |   5 U5               |   6 U6               |   116.43
    4 U4               |   5 U5               |   6 U6               |    65.62
    6 U6               |   5 U5               |   4 U4               |    65.62
 ------------------------------------------------------------------------------
                            number of included internuclear angles:         25
 ==============================================================================




  !!!!!!!!!  geom_3d NEEDS TESTING !!!!!!!!!! 


                         Geometry "geometry" -> "        "
                         ---------------------------------

 Output coordinates in angstroms (scale by  1.889725989 to convert to a.u.)

  No.       Tag          Charge          X              Y              Z
 ---- ---------------- ---------- -------------- -------------- --------------
    1 U1                  92.0000     1.72000000     1.72000000    16.07240880
    2 U2                  92.0000     0.00000000     0.00000000    14.86311120
    3 U3                  92.0000     1.72000000     1.72000000    12.87997920
    4 U4                  92.0000     0.00000000     0.00000000    11.16000000
    5 U5                  92.0000     1.72000000     1.72000000     9.17686800
    6 U6                  92.0000     0.00000000     0.00000000     7.96757040
    7 O1                   8.0000     1.28779840     0.43220160    18.07228080
    8 O2                   8.0000     0.43220160     1.28779840    18.07228080

      Lattice Parameters 
      ------------------ 

      lattice vectors in angstroms (scale by  1.889725989 to convert to a.u.)

      a1=<   3.440   0.000   0.000 >
      a2=<   0.000   3.440   0.000 >
      a3=<   0.000   0.000  22.320 >
      a=       3.440 b=      3.440 c=      22.320
      alpha=  90.000 beta=  90.000 gamma=  90.000
      omega=   264.1

      reciprocal lattice vectors in a.u.

      b1=<   0.967   0.000  -0.000 >
      b2=<  -0.000   0.967  -0.000 >
      b3=<   0.000   0.000   0.149 >

      Atomic Mass 
      ----------- 

      U1               238.050800
      U2               238.050800
      U3               238.050800
      U4               238.050800
      U5               238.050800
      U6               238.050800
      O1                15.994910
      O2                15.994910


 ==============================================================================
                                internuclear distances
 ------------------------------------------------------------------------------
       center one      |      center two      | atomic units |  angstroms
 ------------------------------------------------------------------------------
    2 U2               |   1 U1               |     5.13338  |     2.71647
    3 U3               |   1 U1               |     6.03282  |     3.19243
    3 U3               |   2 U2               |     5.93073  |     3.13841
    4 U4               |   2 U2               |     6.99787  |     3.70311
    4 U4               |   3 U3               |     5.62971  |     2.97912
    5 U5               |   3 U3               |     6.99787  |     3.70311
    5 U5               |   4 U4               |     5.93073  |     3.13841
    6 U6               |   4 U4               |     6.03282  |     3.19243
    6 U6               |   5 U5               |     5.13338  |     2.71647
    7 O1               |   1 U1               |     4.56857  |     2.41758
    8 O2               |   1 U1               |     4.56857  |     2.41758
    8 O2               |   7 O1               |     2.28656  |     1.21000
 ------------------------------------------------------------------------------
                         number of included internuclear distances:         12
 ==============================================================================



 ==============================================================================
                                 internuclear angles
 ------------------------------------------------------------------------------
        center 1       |       center 2       |       center 3       |  degrees
 ------------------------------------------------------------------------------
    1 U1               |   2 U2               |   3 U3               |    65.62
    2 U2               |   1 U1               |   7 O1               |    85.28
    2 U2               |   1 U1               |   8 O2               |    85.28
    3 U3               |   1 U1               |   7 O1               |   145.81
    3 U3               |   1 U1               |   8 O2               |   145.81
    7 O1               |   1 U1               |   8 O2               |    28.98
    1 U1               |   2 U2               |   3 U3               |    65.62
    1 U1               |   2 U2               |   4 U4               |   116.43
    2 U2               |   3 U3               |   4 U4               |    74.45
    3 U3               |   2 U2               |   1 U1               |    65.62
    1 U1               |   3 U3               |   4 U4               |   125.26
    1 U1               |   3 U3               |   5 U5               |   180.00
    2 U2               |   3 U3               |   4 U4               |    74.45
    2 U2               |   3 U3               |   5 U5               |   129.19
    3 U3               |   4 U4               |   5 U5               |    74.45
    4 U4               |   3 U3               |   2 U2               |    74.45
    2 U2               |   4 U4               |   5 U5               |   129.19
    2 U2               |   4 U4               |   6 U6               |   180.00
    3 U3               |   4 U4               |   5 U5               |    74.45
    3 U3               |   4 U4               |   6 U6               |   125.26
    4 U4               |   5 U5               |   6 U6               |    65.62
    5 U5               |   4 U4               |   3 U3               |    74.45
    3 U3               |   5 U5               |   6 U6               |   116.43
    4 U4               |   5 U5               |   6 U6               |    65.62
    6 U6               |   5 U5               |   4 U4               |    65.62
    7 O1               |   1 U1               |   8 O2               |    28.98
    8 O2               |   1 U1               |   7 O1               |    28.98
 ------------------------------------------------------------------------------
                            number of included internuclear angles:         27
 ==============================================================================



          **********************************************************
          *                                                        *
          *                   NWPW BAND Calculation                *
          *                                                        *
          *  [(bundled Grassman/Stiefel manifold implementation)]  *
          *                                                        *
          *         [ NorthWest Chemistry implementation ]         *
          *                                                        *
          *                version #1.10   01/31/03                *
          *                                                        *
          *  A pseudopotential plane-wave band structure program   *
          *  with Brillouin zone sampling for optimizing crystals, *
          *  slabs, and polymers.  Developed by Eric J. Bylaska    *
          *  , Edoardo Apra, and Patrick Nichols.                  *
          *                                                        *
          **********************************************************
     >>>  JOB STARTED       AT Mon Mar 11 07:48:05 2013  <<<
          ================ input data ========================
 Brillioun Zone Vectors do not match!

 pseudopotential is not correctly formatted:U.cpp                                             

 pseudopotential is not correctly formatted---bad brillioun zone:U.cpp                                             

 Generated formatted_filename: ./perm/U.cpp
 - Spline fitted, nray=40299 -
 - filtered -
 Brillioun Zone Vectors do not match!

 pseudopotential is not correctly formatted:O.cpp                                             

 pseudopotential is not correctly formatted---bad brillioun zone:O.cpp                                             

 Generated formatted_filename: ./perm/O.cpp
 - Spline fitted, nray=40299 -
 - filtered -
 Error reading psi - bad unitcell
  - Ignored if the following  parameter is set
  - set nwpw:psi_nolattice .true.
 Error reading psi - bad unitcell
  - Ignored if the following  parameter is set
  - set nwpw:psi_nolattice .true.
 Error reading psi - bad unitcell
  - Ignored if the following  parameter is set
  - set nwpw:psi_nolattice .true.

 input psi filename:./perm/U6O2-100-crossctr.movecs

 number of processors used:             288
 processor grid           :  36 x   1 x   8
 parallel mapping         :     2d  hilbert

 options:
      boundary conditions  = periodic    (version3)
      electron spin        = unrestricted
      exchange-correlation = PBE96 (White and Bird) parameterization

 elements involved in the cluster:
      1: U     core charge:14.0  lmax=3
             comment    : Parameterized (J.Chem. Phys. vol 128, 124507 (2008)) Troullier-Martins psp
             pseudpotential type            :   0
             highest angular component      :   3
             local potential used           :   0
             number of non-local projections:  15
             cutoff =   1.421   1.602   2.400   1.250
      2: O     core charge: 6.0  lmax=2
             comment    : Parameterized (Chem.Phys.Lett., vol 322, page 447) Hamman psp
             pseudpotential type            :   0
             highest angular component      :   2
             local potential used           :   2
             number of non-local projections:   4
             cutoff =   0.700   0.700   0.700

 total charge:   0.000

 atomic composition:
     U   :  6     O   :  2

 number of electrons: spin up=   49.00  spin down=   47.00 (fourier space)
 number of orbitals:  spin up=      49  spin down=      47 (fourier space)

 supercell:
      lattice:    a1=<   6.501   0.000   0.000 >
                  a2=<   0.000   6.501   0.000 >
                  a3=<   0.000   0.000  42.179 >
      reciprocal: b1=<   0.967   0.000  -0.000 >
                  b2=<  -0.000   0.967  -0.000 >
                  b3=<   0.000   0.000   0.149 >

      lattice:    a=   6.501    b=   6.501     c=  42.179
              alpha=  90.000 beta=  90.000 gamma=  90.000
      volume :     1782.4
      ewald summation: cut radius=    3.00  and  8
                        madelung=-3.34887517

 brillouin zone:
      number of zone points:     8
      weight=   0.125  ks=<   0.375   0.375   0.000 >, k=<   0.362   0.362  -0.000>
      weight=   0.125  ks=<   0.125   0.375   0.000 >, k=<   0.121   0.362  -0.000>
      weight=   0.125  ks=<  -0.125   0.375   0.000 >, k=<  -0.121   0.362  -0.000>
      weight=   0.125  ks=<   0.375  -0.375   0.000 >, k=<   0.362  -0.362  -0.000>
      weight=   0.125  ks=<   0.375   0.125   0.000 >, k=<   0.362   0.121  -0.000>
      weight=   0.125  ks=<   0.125   0.125   0.000 >, k=<   0.121   0.121  -0.000>
      weight=   0.125  ks=<   0.125  -0.125   0.000 >, k=<   0.121  -0.121  -0.000>
      weight=   0.125  ks=<   0.375  -0.125   0.000 >, k=<   0.362  -0.121  -0.000>

 computational grids:
      density     cutoff=180.000  fft=  64x  64x 512(   205623 waves     5711 per task)
      wavefnc   1 cutoff= 90.000  fft=  64x  64x 512(    72794 waves     2022 per task)
      wavefnc   2 cutoff= 90.000  fft=  64x  64x 512(    72667 waves     2018 per task)
      wavefnc   3 cutoff= 90.000  fft=  64x  64x 512(    72667 waves     2018 per task)
      wavefnc   4 cutoff= 90.000  fft=  64x  64x 512(    72794 waves     2022 per task)
      wavefnc   5 cutoff= 90.000  fft=  64x  64x 512(    72667 waves     2018 per task)
      wavefnc   6 cutoff= 90.000  fft=  64x  64x 512(    72659 waves     2018 per task)
      wavefnc   7 cutoff= 90.000  fft=  64x  64x 512(    72659 waves     2018 per task)
      wavefnc   8 cutoff= 90.000  fft=  64x  64x 512(    72667 waves     2018 per task)

 technical parameters:
      time step=      5.80     ficticious mass=  400000.0
      tolerance=.100E-05 (energy)   0.100E-05 (density)
      maximum iterations =      3000 (   10 inner    300 outer )



= energy calculation =


          ======== bundled Grassmann lmbfgs iteration ========
     >>>  ITERATION STARTED AT Mon Mar 11 07:53:10 2013  <<<
    iter.           Energy         DeltaE       DeltaRho 
    ------------------------------------------------------
      10   -0.3360307755E+03   -0.89084E+00    0.87303E+01
     -  10 steepest descent iterations performed
      20   -0.3393450940E+03   -0.60949E-01    0.17047E+00
     -  10 steepest descent iterations performed
      30   -0.3396678582E+03   -0.11775E-01    0.78308E-02
     -  10 steepest descent iterations performed
      40   -0.3397420864E+03   -0.38983E-02    0.22129E-02
      50   -0.3397769621E+03   -0.12915E-02    0.96678E-03
      60   -0.3397898990E+03   -0.13266E-02    0.21074E-03
     -  10 steepest descent iterations performed
      70   -0.3397987232E+03   -0.50044E-03    0.70272E-04
      80   -0.3398043353E+03   -0.37043E-03    0.13052E-03
      90   -0.3398083088E+03   -0.44088E-03    0.13789E-03
     -  10 steepest descent iterations performed
     100   -0.3398114977E+03   -0.16952E-03    0.47439E-04
     110   -0.3398130469E+03   -0.14617E-03    0.36677E-04
     120   -0.3398145155E+03   -0.16856E-03    0.58200E-04
     -  10 steepest descent iterations performed
     130   -0.3398160628E+03   -0.77495E-04    0.96605E-05
     140   -0.3398170055E+03   -0.82323E-04    0.24398E-04
     -  10 steepest descent iterations performed
     150   -0.3398180123E+03   -0.96071E-04    0.14111E-04
     -  10 steepest descent iterations performed
     160   -0.3398186883E+03   -0.59580E-04    0.11172E-04
     170   -0.3398201780E+03   -0.12434E-03    0.12429E-03
     -  10 steepest descent iterations performed
     180   -0.3398213993E+03   -0.51402E-04    0.53371E-05
     190   -0.3398217325E+03   -0.30981E-04    0.44959E-05
     200   -0.3398222604E+03   -0.89418E-04    0.21258E-04
     -  10 steepest descent iterations performed
     210   -0.3398228289E+03   -0.22200E-04    0.31751E-05
     220   -0.3398230930E+03   -0.26519E-04    0.73105E-05
     -  10 steepest descent iterations performed
     230   -0.3398234136E+03   -0.35779E-04    0.45987E-05
     -  10 steepest descent iterations performed
     240   -0.3398236363E+03   -0.17647E-04    0.46448E-05
     250   -0.3398240848E+03   -0.26728E-04    0.48820E-04
     -  10 steepest descent iterations performed
     260   -0.3398244298E+03   -0.11897E-04    0.25174E-05
     270   -0.3398244972E+03   -0.68468E-05    0.14318E-05
     280   -0.3398246335E+03   -0.18798E-04    0.16450E-04
     -  10 steepest descent iterations performed
     290   -0.3398247720E+03   -0.46717E-05    0.11123E-05
     300   -0.3398248392E+03   -0.73202E-05    0.46378E-05
     -  10 steepest descent iterations performed
     310   -0.3398249156E+03   -0.67553E-05    0.20753E-05
     320   -0.3398249810E+03   -0.74906E-05    0.70841E-05
     -  10 steepest descent iterations performed
     330   -0.3398250626E+03   -0.49868E-05    0.15852E-05
     340   -0.3398250987E+03   -0.31985E-05    0.25746E-05
     350   -0.3398252618E+03   -0.16206E-04    0.87359E-04
     -  10 steepest descent iterations performed
     360   -0.3398253926E+03   -0.20411E-05    0.91298E-06
     370   -0.3398254188E+03   -0.33299E-05    0.15439E-05
     -  10 steepest descent iterations performed
     380   -0.3398254515E+03   -0.44868E-05    0.33031E-05
     -  10 steepest descent iterations performed
     390   -0.3398254801E+03   -0.20380E-05    0.12861E-05
     400   -0.3398255359E+03   -0.49732E-05    0.23814E-04
     -  10 steepest descent iterations performed
     410   -0.3398255934E+03   -0.20324E-05    0.75112E-06
     420   -0.3398256091E+03   -0.17191E-05    0.11155E-05
     430   -0.3398256508E+03   -0.60828E-05    0.17015E-04
     -  10 steepest descent iterations performed
     440   -0.3398256976E+03   -0.14348E-05    0.56765E-06
     450   -0.3398257131E+03   -0.19765E-05    0.13907E-05
     -  10 steepest descent iterations performed
     460   -0.3398257228E+03   -0.97720E-06    0.10437E-06
  *** tolerance ok.    iteration terminated.
     >>>  ITERATION ENDED   AT Mon Mar 11 08:44:27 2013  <<<


          =============  summary of results  =================

 number of electrons: spin up=   49.00000  down=   47.00000 (real space)

 total     energy    :  -0.3398257228E+03 (   -0.42478E+02/ion)
 total orbital energy:  -0.1500758758E+02 (   -0.15633E+00/electron)
 hartree   energy    :   0.1087690371E+04 (    0.11330E+02/electron)
 exc-corr  energy    :  -0.4628000417E+02 (   -0.48208E+00/electron)
 ion-ion   energy    :   0.7489073055E+03 (    0.93613E+02/ion)

 K.S. kinetic energy :   0.1656194736E+03 (    0.17252E+01/electron)
 K.S. V_l  energy    :  -0.2807175195E+03 (   -0.29241E+01/electron)
 K.S. V_nl energy    :  -0.5145652779E+02 (   -0.53601E+00/electron)
 K.S. V_Hart energy  :   0.2175380742E+04 (    0.22660E+02/electron)
 K.S. V_xc energy    :  -0.6024493462E+02 (   -0.62755E+00/electron)