----------------------------------------
Begin Torque Prologue (Tue Mar 12 20:36:46 2013)
Job ID:           386293.taubm1.campuscluster.illinois.edu
Username:         davis68
Group:            npre_rizwan
Job Name:         U6O2-211-opt-es
Limits:           ncpus=1,neednodes=24:ppn=12,nodes=24:ppn=12,walltime=08:00:00
Job Queue:        cse
Account:          NPRE
Nodes:            taub089 taub092 taub093 taub094 taub095 taub251 taub300 taub314 taub315 taub318 taub326 taub389 taub397 taub399 taub402 taub412 taub417 taub431 taub437 taub438 taub453 taub458 taub467 taub470
End Torque Prologue
----------------------------------------
 argument  1 = ./U6O2-211-opt-es.nw



============================== echo of input deck ==============================
title "Gamma-uranium (100) slab relaxation"
echo

permanent_dir ./perm
scratch_dir   ./scratch

restart U6O2-211-rel2

memory 2500 mb

nwpw
  # Real-space discretization
  simulation_cell
    ngrid 64 96 420
  end

  # Spin multiplicity---quenched to 1 in the solid state
  mult 3

  # Band, k-point sampling, and parallelism
  monkhorst-pack 4 4 1
  np_dimensions 8 12 8
  mapping 2

  # Periodicity considerations
  ewald_rcut 3.0
  ewald_ncut 8

  # Simulation parameters
  restricted    # DFT||ODFT||RESTRICTED||UNRESTRICTED
  #spin_orbit .true.
  xc pbe96
  cutoff 90.0
  loop 10 300
end
set nwpw:minimizer      2
set nwpw:lcao_skip      .true.
set nwpw:kbpp_ray       .true.
set nwpw:kbpp_filter    .true.

#       (211) gamma-uranium surface with surface displacements:	43.40%	-18.50%	and optimal X displacement.
geometry	center	noautosym	noautoz	print
	system	crystal
	lat_a	2.97913
	lat_b	4.86259
	lat_c	20.42762
	alpha	90.0d0
	beta	90.0d0
	gamma	90.0d0
	end
	U1	0.66667	0.50000	0.68916
	U2	0.33333	0.00000	0.65024
	U3	0.00000	0.50000	0.56876
	U4	0.66667	0.00000	0.50000
	U5	0.33333	0.50000	0.41852
	U6	0.00000	0.00000	0.37960
	O1	0.15909	0.75385	0.73808
	O2	0.15686	0.24913	0.73819
end
task band energy

# Get the electronic characteristics of this geometry.
nwpw
  dos
  efield
  mulliken
  #esp
  #efieldgrad
  #electrondensity
end
task pspw energy ignore
set nwpw:dos:actlist 7:8
task pspw energy ignore

# Get the band structure.
task band energy
nwpw
  virtual 16
  brillouin_zone
    zone_name bccpath
    path bcc gamma h n gamma p h n
  end
  zone_structure_name bccpath
end
task band structure

nwpw
  virtual 16
  dos-grid 5 5 5
end
task band dos

# A.M.D.G.
================================================================================


                                         
                                         


             Northwest Computational Chemistry Package (NWChem) 6.1.1
             --------------------------------------------------------


                    Environmental Molecular Sciences Laboratory
                       Pacific Northwest National Laboratory
                                Richland, WA 99352

                              Copyright (c) 1994-2012
                       Pacific Northwest National Laboratory
                            Battelle Memorial Institute

             NWChem is an open-source computational chemistry package
                        distributed under the terms of the
                      Educational Community License (ECL) 2.0
             A copy of the license is included with this distribution
                              in the LICENSE.TXT file

                                  ACKNOWLEDGMENT
                                  --------------

            This software and its documentation were developed at the
            EMSL at Pacific Northwest National Laboratory, a multiprogram
            national laboratory, operated for the U.S. Department of Energy
            by Battelle under Contract Number DE-AC05-76RL01830. Support
            for this work was provided by the Department of Energy Office
            of Biological and Environmental Research, Office of Basic
            Energy Sciences, and the Office of Advanced Scientific Computing.


           Job information
           ---------------

    hostname        = taub470
    program         = /home/davis68/bin/nwchem-dev
    date            = Tue Mar 12 20:37:00 2013

    compiled        = Wed_Oct_03_09:41:00_2012
    source          = /home/davis68/nwchem/nwchem-src-2012-Aug-27/
    nwchem branch   = Development
    nwchem revision = 22805
    ga revision     = 10079
    input           = ./U6O2-211-opt-es.nw
    prefix          = U6O2-211-rel2.
    data base       = ./perm/U6O2-211-rel2.db
    status          = restart
    nproc           =      288
    time left       =     -1s



           Memory information
           ------------------

    heap     =   81920001 doubles =    625.0 Mbytes
    stack    =   81920001 doubles =    625.0 Mbytes
    global   =  163840000 doubles =   1250.0 Mbytes (distinct from heap & stack)
    total    =  327680002 doubles =   2500.0 Mbytes
    verify   = yes
    hardfail = no 


           Directory information
           ---------------------

  0 permanent = ./perm
  0 scratch   = ./scratch

rtdb_seq_open: ./perm/U6O2-211-rel2.db does not exist, cannot open old
 start: rtdb_open old failed         0
 ------------------------------------------------------------------------
 An error occured in the Runtime Database
 ------------------------------------------------------------------------
 For more information see the NWChem manual at http://www.nwchem-sw.org/index.php/NWChem_Documentation


 For further details see manual section:                                                                                                                                                                                                                                                                
 start: rtdb_open old failed         0
 ------------------------------------------------------------------------
 An error occured in the Runtime Database
 ------------------------------------------------------------------------
 For more information see the NWChem manual at http://www.nwchem-sw.org/index.php/NWChem_Documentation


 For further details see manual section:                                                                                                                                                                                                                                                                
5:5:start: rtdb_open old failed:: 0
(rank:5 hostname:taub470 pid:16487):ARMCI DASSERT fail. ../../ga-5-1/armci/src/common/armci.c:ARMCI_Error():208 cond:0
 start: rtdb_open old failed         0
 ------------------------------------------------------------------------
 An error occured in the Runtime Database
 ------------------------------------------------------------------------
 For more information see the NWChem manual at http://www.nwchem-sw.org/index.php/NWChem_Documentation


 For further details see manual section:                                                                                                                                                                                                                                                                
2:2:start: rtdb_open old failed:: 0
(rank:2 hostname:taub470 pid:16484):ARMCI DASSERT fail. ../../ga-5-1/armci/src/common/armci.c:ARMCI_Error():208 cond:0
Last System Error Message from Task 2:: No such file or directory
 start: rtdb_open old failed         0
 ------------------------------------------------------------------------
 An error occured in the Runtime Database
 ------------------------------------------------------------------------
 For more information see the NWChem manual at http://www.nwchem-sw.org/index.php/NWChem_Documentation


 For further details see manual section:                                                                                                                                                                                                                                                                
3:3:start: rtdb_open old failed:: 0
(rank:3 hostname:taub470 pid:16485):ARMCI DASSERT fail. ../../ga-5-1/armci/src/common/armci.c:ARMCI_Error():208 cond:0
Last System Error Message from Task 3:: No such file or directory
 start: rtdb_open old failed         0
 ------------------------------------------------------------------------
 An error occured in the Runtime Database
 ------------------------------------------------------------------------
 For more information see the NWChem manual at http://www.nwchem-sw.org/index.php/NWChem_Documentation


 For further details see manual section:                                                                                                                                                                                                                                                                
4:4:start: rtdb_open old failed:: 0
(rank:4 hostname:taub470 pid:16486):ARMCI DASSERT fail. ../../ga-5-1/armci/src/common/armci.c:ARMCI_Error():208 cond:0
Last System Error Message from Task 4:: No such file or directory
Last System Error Message from Task 5:: No such file or directory
 start: rtdb_open old failed         0
 ------------------------------------------------------------------------
 An error occured in the Runtime Database
 ------------------------------------------------------------------------
 For more information see the NWChem manual at http://www.nwchem-sw.org/index.php/NWChem_Documentation


 For further details see manual section:                                                                                                                                                                                                                                                                
7:7:start: rtdb_open old failed:: 0
 start: rtdb_open old failed         0
 ------------------------------------------------------------------------
 An error occured in the Runtime Database
 ------------------------------------------------------------------------
 For more information see the NWChem manual at http://www.nwchem-sw.org/index.php/NWChem_Documentation


 For further details see manual section:                                                                                                                                                                                                                                                                
(rank:7 hostname:taub470 pid:16489):ARMCI DASSERT fail. ../../ga-5-1/armci/src/common/armci.c:ARMCI_Error():208 cond:0
Last System Error Message from Task 7:: No such file or directory
6:6:start: rtdb_open old failed:: 0

 ------------------------------------------------------------------------
 start: rtdb_open old failed         0
 ------------------------------------------------------------------------
 An error occured in the Runtime Database
 ------------------------------------------------------------------------
 For more information see the NWChem manual at http://www.nwchem-sw.org/index.php/NWChem_Documentation


 For further details see manual section:                                                                                                                                                                                                                                                                
(rank:6 hostname:taub470 pid:16488):ARMCI DASSERT fail. ../../ga-5-1/armci/src/common/armci.c:ARMCI_Error():208 cond:0
Last System Error Message from Task 6:: No such file or directory
 start: rtdb_open old failed         0
 ------------------------------------------------------------------------
 An error occured in the Runtime Database
 ------------------------------------------------------------------------
 For more information see the NWChem manual at http://www.nwchem-sw.org/index.php/NWChem_Documentation


 For further details see manual section:                                                                                                                                                                                                                                                                
 start: rtdb_open old failed         0
 ------------------------------------------------------------------------
 An error occured in the Runtime Database
 ------------------------------------------------------------------------
 For more information see the NWChem manual at http://www.nwchem-sw.org/index.php/NWChem_Documentation


 For further details see manual section:                                                                                                                                                                                                                                                                
10:10:start: rtdb_open old failed:: 0
(rank:10 hostname:taub470 pid:16492):ARMCI DASSERT fail. ../../ga-5-1/armci/src/common/armci.c:ARMCI_Error():208 cond:0
0:0:start: rtdb_open old failed:: 0
(rank:0 hostname:taub470 pid:16482):ARMCI DASSERT fail. ../../ga-5-1/armci/src/common/armci.c:ARMCI_Error():208 cond:0
 start: rtdb_open old failed         0
 ------------------------------------------------------------------------
 An error occured in the Runtime Database
 ------------------------------------------------------------------------
 For more information see the NWChem manual at http://www.nwchem-sw.org/index.php/NWChem_Documentation


 For further details see manual section:                                                                                                                                                                                                                                                                
8:8:start: rtdb_open old failed:: 0
(rank:8 hostname:taub470 pid:16490):ARMCI DASSERT fail. ../../ga-5-1/armci/src/common/armci.c:ARMCI_Error():208 cond:0
9:9:start: rtdb_open old failed:: 0
(rank:9 hostname:taub470 pid:16491):ARMCI DASSERT fail. ../../ga-5-1/armci/src/common/armci.c:ARMCI_Error():208 cond:0
Last System Error Message from Task 9:: No such file or directory
Last System Error Message from Task 10:: No such file or directory
 start: rtdb_open old failed         0
 ------------------------------------------------------------------------
 An error occured in the Runtime Database
 ------------------------------------------------------------------------
 For more information see the NWChem manual at http://www.nwchem-sw.org/index.php/NWChem_Documentation


 For further details see manual section:                                                                                                                                                                                                                                                                
11:11:start: rtdb_open old failed:: 0
(rank:11 hostname:taub470 pid:16493):ARMCI DASSERT fail. ../../ga-5-1/armci/src/common/armci.c:ARMCI_Error():208 cond:0
Last System Error Message from Task 11:: No such file or directory
Last System Error Message from Task 0:: No such file or directory
Last System Error Message from Task 8:: No such file or directory
1:1:start: rtdb_open old failed:: 0
(rank:1 hostname:taub470 pid:16483):ARMCI DASSERT fail. ../../ga-5-1/armci/src/common/armci.c:ARMCI_Error():208 cond:0
Last System Error Message from Task 1:: No such file or directory
application called MPI_Abort(comm=0x84000003, 0) - process 5
application called MPI_Abort(comm=0x84000003, 0) - process 11
application called MPI_Abort(comm=0x84000003, 0) - process 8
application called MPI_Abort(comm=0x84000003, 0) - process 2
application called MPI_Abort(comm=0x84000003, 0) - process 1
application called MPI_Abort(comm=0x84000003, 0) - process 4
application called MPI_Abort(comm=0x84000003, 0) - process 7
application called MPI_Abort(comm=0x84000003, 0) - process 9
application called MPI_Abort(comm=0x84000003, 0) - process 3
application called MPI_Abort(comm=0x84000003, 0) - process 10
application called MPI_Abort(comm=0x84000003, 0) - process 6
application called MPI_Abort(comm=0x84000005, 0) - process 0
 start: rtdb_open old failed         0
 ------------------------------------------------------------------------
 An error occured in the Runtime Database
 ------------------------------------------------------------------------
 For more information see the NWChem manual at http://www.nwchem-sw.org/index.php/NWChem_Documentation


 For further details see manual section:                                                                                                                                                                                                                                                                
Last System Error Message from Task 157:: No such file or directory
157:157:start: rtdb_open old failed:: 0
(rank:157 hostname:taub314 pid:7079):ARMCI DASSERT fail. ../../ga-5-1/armci/src/common/armci.c:ARMCI_Error():208 cond:0
 start: rtdb_open old failed         0
 ------------------------------------------------------------------------
 An error occured in the Runtime Database
 ------------------------------------------------------------------------
 For more information see the NWChem manual at http://www.nwchem-sw.org/index.php/NWChem_Documentation


 For further details see manual section:                                                                                                                                                                                                                                                                
25:25:start: rtdb_open old failed:: 0
Last System Error Message from Task 25:: No such file or directory
 start: rtdb_open old failed         0
 ------------------------------------------------------------------------
 An error occured in the Runtime Database
 ------------------------------------------------------------------------
 For more information see the NWChem manual at http://www.nwchem-sw.org/index.php/NWChem_Documentation


 For further details see manual section:                                                                                                                                                                                                                                                                
26:26:start: rtdb_open old failed:: 0
Last System Error Message from Task 26:: No such file or directory
 start: rtdb_open old failed         0
 ------------------------------------------------------------------------
 An error occured in the Runtime Database
 ------------------------------------------------------------------------
 For more information see the NWChem manual at http://www.nwchem-sw.org/index.php/NWChem_Documentation


 For further details see manual section:                                                                                                                                                                                                                                                                
 start: rtdb_open old failed         0
 ------------------------------------------------------------------------
 An error occured in the Runtime Database
 ------------------------------------------------------------------------
 For more information see the NWChem manual at http://www.nwchem-sw.org/index.php/NWChem_Documentation


 For further details see manual section:                                                                                                                                                                                                                                                                
169:169:start: rtdb_open old failed:: 0
(rank:169 hostname:taub251 pid:5857):ARMCI DASSERT fail. ../../ga-5-1/armci/src/common/armci.c:ARMCI_Error():208 cond:0
Last System Error Message from Task 169:: No such file or directory
 start: rtdb_open old failed         0
 ------------------------------------------------------------------------
 An error occured in the Runtime Database
 ------------------------------------------------------------------------
 For more information see the NWChem manual at http://www.nwchem-sw.org/index.php/NWChem_Documentation


 For further details see manual section:                                                                                                                                                                                                                                                                
Last System Error Message from Task 170:: No such file or directory
(rank:25 hostname:taub458 pid:15167):ARMCI DASSERT fail. ../../ga-5-1/armci/src/common/armci.c:ARMCI_Error():208 cond:0
(rank:26 hostname:taub458 pid:15168):ARMCI DASSERT fail. ../../ga-5-1/armci/src/common/armci.c:ARMCI_Error():208 cond:0
 start: rtdb_open old failed         0
 ------------------------------------------------------------------------
 An error occured in the Runtime Database
 ------------------------------------------------------------------------
 For more information see the NWChem manual at http://www.nwchem-sw.org/index.php/NWChem_Documentation


 For further details see manual section:                                                                                                                                                                                                                                                                
 start: rtdb_open old failed         0
 ------------------------------------------------------------------------
 An error occured in the Runtime Database
 ------------------------------------------------------------------------
 For more information see the NWChem manual at http://www.nwchem-sw.org/index.php/NWChem_Documentation


 For further details see manual section:                                                                                                                                                                                                                                                                
170:170:start: rtdb_open old failed:: 0
(rank:170 hostname:taub251 pid:5858):ARMCI DASSERT fail. ../../ga-5-1/armci/src/common/armci.c:ARMCI_Error():208 cond:0
 start: rtdb_open old failed         0
 ------------------------------------------------------------------------
 An error occured in the Runtime Database
 ------------------------------------------------------------------------
 For more information see the NWChem manual at http://www.nwchem-sw.org/index.php/NWChem_Documentation


 For further details see manual section:                                                                                                                                                                                                                                                                
 start: rtdb_open old failed         0
 ------------------------------------------------------------------------
 An error occured in the Runtime Database
 ------------------------------------------------------------------------
 For more information see the NWChem manual at http://www.nwchem-sw.org/index.php/NWChem_Documentation


 For further details see manual section:                                                                                                                                                                                                                                                                
 start: rtdb_open old failed         0
 ------------------------------------------------------------------------
 An error occured in the Runtime Database
 ------------------------------------------------------------------------
 For more information see the NWChem manual at http://www.nwchem-sw.org/index.php/NWChem_Documentation


 For further details see manual section:                                                                                                                                                                                                                                                                
 start: rtdb_open old failed         0
 ------------------------------------------------------------------------
 An error occured in the Runtime Database
 ------------------------------------------------------------------------
 For more information see the NWChem manual at http://www.nwchem-sw.org/index.php/NWChem_Documentation


 For further details see manual section:                                                                                                                                                                                                                                                                
 start: rtdb_open old failed         0
 ------------------------------------------------------------------------
 An error occured in the Runtime Database
 ------------------------------------------------------------------------
 For more information see the NWChem manual at http://www.nwchem-sw.org/index.php/NWChem_Documentation


 For further details see manual section:                                                                                                                                                                                                                                                                
 start: rtdb_open old failed         0
 ------------------------------------------------------------------------
 An error occured in the Runtime Database
 ------------------------------------------------------------------------
 For more information see the NWChem manual at http://www.nwchem-sw.org/index.php/NWChem_Documentation


 For further details see manual section:                                                                                                                                                                                                                                                                
 start: rtdb_open old failed         0
 ------------------------------------------------------------------------
 An error occured in the Runtime Database
 ------------------------------------------------------------------------
 For more information see the NWChem manual at http://www.nwchem-sw.org/index.php/NWChem_Documentation


 For further details see manual section:                                                                                                                                                                                                                                                                
 start: rtdb_open old failed         0
 ------------------------------------------------------------------------
 An error occured in the Runtime Database
 ------------------------------------------------------------------------
 For more information see the NWChem manual at http://www.nwchem-sw.org/index.php/NWChem_Documentation


 For further details see manual section:                                                                                                                                                                                                                                                                
 start: rtdb_open old failed         0
 ------------------------------------------------------------------------
 An error occured in the Runtime Database
 ------------------------------------------------------------------------
 For more information see the NWChem manual at http://www.nwchem-sw.org/index.php/NWChem_Documentation


 For further details see manual section:                                                                                                                                                                                                                                                                
 start: rtdb_open old failed         0
 ------------------------------------------------------------------------
 An error occured in the Runtime Database
 ------------------------------------------------------------------------
 For more information see the NWChem manual at http://www.nwchem-sw.org/index.php/NWChem_Documentation


 For further details see manual section:                                                                                                                                                                                                                                                                
176:176:start: rtdb_open old failed:: 0
 start: rtdb_open old failed         0
 ------------------------------------------------------------------------
 An error occured in the Runtime Database
 ------------------------------------------------------------------------
 For more information see the NWChem manual at http://www.nwchem-sw.org/index.php/NWChem_Documentation


 For further details see manual section:                                                                                                                                                                                                                                                                
 start: rtdb_open old failed         0
 ------------------------------------------------------------------------
 An error occured in the Runtime Database
 ------------------------------------------------------------------------
 For more information see the NWChem manual at http://www.nwchem-sw.org/index.php/NWChem_Documentation


 For further details see manual section:                                                                                                                                                                                                                                                                