----------------------------------------
Begin Torque Prologue (Tue Mar 12 21:47:01 2013)
Job ID:           386865.taubm1.campuscluster.illinois.edu
Username:         davis68
Group:            npre_rizwan
Job Name:         U6O2-211-opt-es
Limits:           ncpus=1,neednodes=24:ppn=12,nodes=24:ppn=12,walltime=08:00:00
Job Queue:        cse
Account:          NPRE
Nodes:            taub264 taub265 taub267 taub272 taub284 taub286 taub297 taub308 taub310 taub313 taub362 taub364 taub365 taub367 taub373 taub374 taub375 taub376 taub378 taub385 taub387 taub471 taub474 taub488
End Torque Prologue
----------------------------------------
 argument  1 = ./U6O2-211-opt-es.nw



============================== echo of input deck ==============================
title "Gamma-uranium (100) slab relaxation"
echo

permanent_dir ./perm
scratch_dir   ./scratch

restart U6O2-211-parctr

memory 2500 mb

nwpw
  # Real-space discretization
  simulation_cell
    ngrid 64 96 420
  end

  # Spin multiplicity---quenched to 1 in the solid state
  mult 3

  # Band, k-point sampling, and parallelism
  monkhorst-pack 4 4 1
  np_dimensions 8 12 8
  mapping 2

  # Periodicity considerations
  ewald_rcut 3.0
  ewald_ncut 8

  # Simulation parameters
  restricted    # DFT||ODFT||RESTRICTED||UNRESTRICTED
  #spin_orbit .true.
  xc pbe96
  cutoff 90.0
  loop 10 300
end
set nwpw:minimizer      2
set nwpw:lcao_skip      .true.
set nwpw:kbpp_ray       .true.
set nwpw:kbpp_filter    .true.

#       (211) gamma-uranium surface with surface displacements:	43.40%	-18.50%	and optimal X displacement.
geometry	center	noautosym	noautoz	print
	system	crystal
	lat_a	2.97913
	lat_b	4.86259
	lat_c	20.42762
	alpha	90.0d0
	beta	90.0d0
	gamma	90.0d0
	end
	U1	0.66667	0.50000	0.68916
	U2	0.33333	0.00000	0.65024
	U3	0.00000	0.50000	0.56876
	U4	0.66667	0.00000	0.50000
	U5	0.33333	0.50000	0.41852
	U6	0.00000	0.00000	0.37960
	O1	0.15909	0.75385	0.73808
	O2	0.15686	0.24913	0.73819
end
task band energy

# Get the electronic characteristics of this geometry.
nwpw
  dos
  efield
  mulliken
  #esp
  #efieldgrad
  #electrondensity
end
task pspw energy ignore
set nwpw:dos:actlist 7:8
task pspw energy ignore

# Get the band structure.
task band energy
nwpw
  virtual 16
  brillouin_zone
    zone_name bccpath
    path bcc gamma h n gamma p h n
  end
  zone_structure_name bccpath
end
task band structure

nwpw
  virtual 16
  dos-grid 5 5 5
end
task band dos

# A.M.D.G.
================================================================================


                                         
                                         


             Northwest Computational Chemistry Package (NWChem) 6.1.1
             --------------------------------------------------------


                    Environmental Molecular Sciences Laboratory
                       Pacific Northwest National Laboratory
                                Richland, WA 99352

                              Copyright (c) 1994-2012
                       Pacific Northwest National Laboratory
                            Battelle Memorial Institute

             NWChem is an open-source computational chemistry package
                        distributed under the terms of the
                      Educational Community License (ECL) 2.0
             A copy of the license is included with this distribution
                              in the LICENSE.TXT file

                                  ACKNOWLEDGMENT
                                  --------------

            This software and its documentation were developed at the
            EMSL at Pacific Northwest National Laboratory, a multiprogram
            national laboratory, operated for the U.S. Department of Energy
            by Battelle under Contract Number DE-AC05-76RL01830. Support
            for this work was provided by the Department of Energy Office
            of Biological and Environmental Research, Office of Basic
            Energy Sciences, and the Office of Advanced Scientific Computing.


           Job information
           ---------------

    hostname        = taub488
    program         = /home/davis68/bin/nwchem-dev
    date            = Tue Mar 12 21:47:15 2013

    compiled        = Wed_Oct_03_09:41:00_2012
    source          = /home/davis68/nwchem/nwchem-src-2012-Aug-27/
    nwchem branch   = Development
    nwchem revision = 22805
    ga revision     = 10079
    input           = ./U6O2-211-opt-es.nw
    prefix          = U6O2-211-parctr.
    data base       = ./perm/U6O2-211-parctr.db
    status          = restart
    nproc           =      288
    time left       =     -1s



           Memory information
           ------------------

    heap     =   81920001 doubles =    625.0 Mbytes
    stack    =   81920001 doubles =    625.0 Mbytes
    global   =  163840000 doubles =   1250.0 Mbytes (distinct from heap & stack)
    total    =  327680002 doubles =   2500.0 Mbytes
    verify   = yes
    hardfail = no 


           Directory information
           ---------------------

  0 permanent = ./perm
  0 scratch   = ./scratch


           Previous task information
           -------------------------

    Theory    = band                            
    Operation = optimize                      
    Status    = ok                            
    Qmmm      = F
    Ignore    = T


           Geometries in the database
           --------------------------

       Name                              Natoms  Last Modified
       --------------------------------  ------  ------------------------
    1  driverinitial                          8  Mon Mar 11 22:00:55 2013  
    2  geometry                               8  Tue Mar 12 01:45:14 2013  

  The geometry named "geometry" is the default for restart



           Basis sets in the database
           --------------------------

  There are no basis sets in the database



                                NWChem Input Module
                                -------------------


                        Gamma-uranium (100) slab relaxation
                        -----------------------------------

  !!!!!!!!!  geom_3d NEEDS TESTING !!!!!!!!!! 


                             Geometry "geometry" -> ""
                             -------------------------

 Output coordinates in angstroms (scale by  1.889725989 to convert to a.u.)

  No.       Tag          Charge          X              Y              Z
 ---- ---------------- ---------- -------------- -------------- --------------
    1 U1                  92.0000     1.98609660     2.43129500    14.07789860
    2 U2                  92.0000     0.99303340     0.00000000    13.28285563
    3 U3                  92.0000     0.00000000     2.43129500    11.61841315
    4 U4                  92.0000     1.98609660     0.00000000    10.21381000
    5 U5                  92.0000     0.99303340     2.43129500     8.54936752
    6 U6                  92.0000     0.00000000     0.00000000     7.75432455
    7 O1                   8.0000     0.47394979     3.66566347    15.07721777
    8 O2                   8.0000     0.46730633     1.21141705    15.07946481

      Lattice Parameters 
      ------------------ 

      lattice vectors in angstroms (scale by  1.889725989 to convert to a.u.)

      a1=<   2.979   0.000   0.000 >
      a2=<   0.000   4.863   0.000 >
      a3=<   0.000   0.000  20.428 >
      a=       2.979 b=      4.863 c=      20.428
      alpha=  90.000 beta=  90.000 gamma=  90.000
      omega=   295.9

      reciprocal lattice vectors in a.u.

      b1=<   1.116   0.000  -0.000 >
      b2=<  -0.000   0.684  -0.000 >
      b3=<   0.000   0.000   0.163 >

      Atomic Mass 
      ----------- 

      U1               238.050800
      U2               238.050800
      U3               238.050800
      U4               238.050800
      U5               238.050800
      U6               238.050800
      O1                15.994910
      O2                15.994910


 ==============================================================================
                                internuclear distances
 ------------------------------------------------------------------------------
       center one      |      center two      | atomic units |  angstroms
 ------------------------------------------------------------------------------
    2 U2               |   1 U1               |     5.18538  |     2.74399
    3 U3               |   1 U1               |     5.97394  |     3.16127
    3 U3               |   2 U2               |     5.87570  |     3.10929
    4 U4               |   2 U2               |     6.09571  |     3.22571
    4 U4               |   3 U3               |     6.49931  |     3.43929
    5 U5               |   3 U3               |     6.09569  |     3.22570
    5 U5               |   4 U4               |     5.87572  |     3.10930
    6 U6               |   4 U4               |     5.97394  |     3.16127
    6 U6               |   5 U5               |     5.18536  |     2.74398
    7 O1               |   1 U1               |     4.14402  |     2.19292
    8 O2               |   1 U1               |     4.13930  |     2.19042
    8 O2               |   2 U2               |     4.21359  |     2.22974
 ------------------------------------------------------------------------------
                         number of included internuclear distances:         12
 ==============================================================================



 ==============================================================================
                                 internuclear angles
 ------------------------------------------------------------------------------
        center 1       |       center 2       |       center 3       |  degrees
 ------------------------------------------------------------------------------
    1 U1               |   2 U2               |   3 U3               |    65.03
    2 U2               |   1 U1               |   7 O1               |   112.41
    1 U1               |   8 O2               |   2 U2               |    76.74
    3 U3               |   1 U1               |   7 O1               |    85.49
    3 U3               |   1 U1               |   8 O2               |    85.42
    7 O1               |   1 U1               |   8 O2               |    68.10
    1 U1               |   2 U2               |   3 U3               |    65.03
    1 U1               |   2 U2               |   4 U4               |    99.45
    2 U2               |   8 O2               |   1 U1               |    76.74
    3 U3               |   2 U2               |   4 U4               |    65.73
    3 U3               |   2 U2               |   8 O2               |    86.05
    4 U4               |   2 U2               |   8 O2               |   147.06
    3 U3               |   2 U2               |   1 U1               |    65.03
    1 U1               |   3 U3               |   4 U4               |    87.42
    1 U1               |   3 U3               |   5 U5               |   123.15
    3 U3               |   2 U2               |   4 U4               |    65.73
    2 U2               |   3 U3               |   5 U5               |   114.27
    3 U3               |   5 U5               |   4 U4               |    65.73
    4 U4               |   2 U2               |   3 U3               |    65.73
    2 U2               |   4 U4               |   5 U5               |   114.27
    2 U2               |   4 U4               |   6 U6               |   123.15
    4 U4               |   5 U5               |   3 U3               |    65.73
    3 U3               |   4 U4               |   6 U6               |    87.42
    4 U4               |   5 U5               |   6 U6               |    65.03
    3 U3               |   5 U5               |   4 U4               |    65.73
    3 U3               |   5 U5               |   6 U6               |    99.45
    4 U4               |   5 U5               |   6 U6               |    65.03
    6 U6               |   5 U5               |   4 U4               |    65.03
    1 U1               |   8 O2               |   2 U2               |    76.74
 ------------------------------------------------------------------------------
                            number of included internuclear angles:         29
 ==============================================================================



                         NWChem Constraints Module
                         -------------------------
 General Information
 -------------------
 fixed atoms                  :   1     2     3     4
                                  5     6


 no springs found
 no springs found
          **********************************************************
          *                                                        *
          *                   NWPW BAND Calculation                *
          *                                                        *
          *  [(bundled Grassman/Stiefel manifold implementation)]  *
          *                                                        *
          *         [ NorthWest Chemistry implementation ]         *
          *                                                        *
          *                version #1.10   01/31/03                *
          *                                                        *
          *  A pseudopotential plane-wave band structure program   *
          *  with Brillouin zone sampling for optimizing crystals, *
          *  slabs, and polymers.  Developed by Eric J. Bylaska    *
          *  , Edoardo Apra, and Patrick Nichols.                  *
          *                                                        *
          **********************************************************
     >>>  JOB STARTED       AT Tue Mar 12 21:47:15 2013  <<<
          ================ input data ========================

 pseudopotential is not correctly formatted:U.cpp                                             

 Generated formatted_filename: ./perm/U.cpp
 - Spline fitted, nray=37686 -
 - filtered -

 pseudopotential is not correctly formatted:O.cpp                                             

 Generated formatted_filename: ./perm/O.cpp
 - Spline fitted, nray=37686 -
 - filtered -
 Error reading psi - bad grid
 nfft :                   36                   48                  210
 ngrid:                   64                   96                  420
 random planewave guess, initial psi:U6O2-211-parctr.movecs                            
 -   spin, nalpha, nbeta:                    1                   48                    0

 input psi filename:./perm/U6O2-211-parctr.movecs
Warning - Orthogonalization performed, spin,zone: 1   1
        - error(before)=  0.673103E+01 (  0.412690E+02)
        - error(after)=   0.710543E-14 (  0.480000E+02)
Warning - Orthogonalization performed, spin,zone: 1   2
        - error(before)=  0.673085E+01 (  0.412691E+02)
        - error(after)=   0.000000E+00 (  0.480000E+02)
Warning - Orthogonalization performed, spin,zone: 1   3
        - error(before)=  0.673151E+01 (  0.412685E+02)
        - error(after)=   0.000000E+00 (  0.480000E+02)
Warning - Orthogonalization performed, spin,zone: 1   4
        - error(before)=  0.673106E+01 (  0.412689E+02)
        - error(after)=   0.710543E-14 (  0.480000E+02)
Warning - Orthogonalization performed, spin,zone: 1   5
        - error(before)=  0.673106E+01 (  0.412689E+02)
        - error(after)=   0.000000E+00 (  0.480000E+02)
Warning - Orthogonalization performed, spin,zone: 1   6
        - error(before)=  0.673157E+01 (  0.412684E+02)
        - error(after)=   0.000000E+00 (  0.480000E+02)
Warning - Orthogonalization performed, spin,zone: 1   7
        - error(before)=  0.673051E+01 (  0.412695E+02)
        - error(after)=   0.142109E-13 (  0.480000E+02)
Warning - Orthogonalization performed, spin,zone: 1   8
        - error(before)=  0.673146E+01 (  0.412685E+02)
        - error(after)=   0.000000E+00 (  0.480000E+02)

 Fixed ion positions:    1    2    3    4    5    6


 number of processors used:             288
 processor grid           :  36 x   1 x   8
 parallel mapping         :     2d  hilbert

 options:
      boundary conditions  = periodic    (version3)
      electron spin        = restricted
      exchange-correlation = PBE96 (White and Bird) parameterization

 elements involved in the cluster:
      1: U     core charge:14.0  lmax=3
             comment    : Parameterized (J.Chem. Phys. vol 128, 124507 (2008)) Troullier-Martins psp
             pseudpotential type            :   0
             highest angular component      :   3
             local potential used           :   0
             number of non-local projections:  15
             cutoff =   1.421   1.602   2.400   1.250
      2: O     core charge: 6.0  lmax=2
             comment    : Parameterized (Chem.Phys.Lett., vol 322, page 447) Hamman psp
             pseudpotential type            :   0
             highest angular component      :   2
             local potential used           :   2
             number of non-local projections:   4
             cutoff =   0.700   0.700   0.700

 total charge:   0.000

 atomic composition:
     U   :  6     O   :  2

 number of electrons: spin up=   48.00  spin down=   48.00 (fourier space)
 number of orbitals:  spin up=      48  spin down=      48 (fourier space)

 supercell:
      lattice:    a1=<   5.630   0.000   0.000 >
                  a2=<   0.000   9.189   0.000 >
                  a3=<   0.000   0.000  38.603 >
      reciprocal: b1=<   1.116   0.000  -0.000 >
                  b2=<  -0.000   0.684  -0.000 >
                  b3=<   0.000   0.000   0.163 >

      lattice:    a=   5.630    b=   9.189     c=  38.603
              alpha=  90.000 beta=  90.000 gamma=  90.000
      volume :     1997.0
      ewald summation: cut radius=    3.00  and  8
                        madelung=-2.04206249

 brillouin zone:
      number of zone points:     8
      weight=   0.125  ks=<   0.375   0.375   0.000 >, k=<   0.419   0.256  -0.000>
      weight=   0.125  ks=<   0.125   0.375   0.000 >, k=<   0.140   0.256  -0.000>
      weight=   0.125  ks=<  -0.125   0.375   0.000 >, k=<  -0.140   0.256  -0.000>
      weight=   0.125  ks=<   0.375  -0.375   0.000 >, k=<   0.419  -0.256  -0.000>
      weight=   0.125  ks=<   0.375   0.125   0.000 >, k=<   0.419   0.085  -0.000>
      weight=   0.125  ks=<   0.125   0.125   0.000 >, k=<   0.140   0.085  -0.000>
      weight=   0.125  ks=<   0.125  -0.125   0.000 >, k=<   0.140  -0.085  -0.000>
      weight=   0.125  ks=<   0.375  -0.125   0.000 >, k=<   0.419  -0.085  -0.000>

 computational grids:
      density     cutoff=180.000  fft=  64x  96x 420(   230205 waves     6394 per task)
      wavefnc   1 cutoff= 90.000  fft=  64x  96x 420(    81468 waves     2263 per task)
      wavefnc   2 cutoff= 90.000  fft=  64x  96x 420(    81379 waves     2260 per task)
      wavefnc   3 cutoff= 90.000  fft=  64x  96x 420(    81379 waves     2260 per task)
      wavefnc   4 cutoff= 90.000  fft=  64x  96x 420(    81468 waves     2263 per task)
      wavefnc   5 cutoff= 90.000  fft=  64x  96x 420(    81490 waves     2263 per task)
      wavefnc   6 cutoff= 90.000  fft=  64x  96x 420(    81407 waves     2261 per task)
      wavefnc   7 cutoff= 90.000  fft=  64x  96x 420(    81407 waves     2261 per task)
      wavefnc   8 cutoff= 90.000  fft=  64x  96x 420(    81490 waves     2263 per task)

 technical parameters:
      time step=      5.80     ficticious mass=  400000.0
      tolerance=.100E-06 (energy)   0.100E-06 (density)
      maximum iterations =      3000 (   10 inner    300 outer )



= energy calculation =


          ======== bundled Grassmann lmbfgs iteration ========
     >>>  ITERATION STARTED AT Tue Mar 12 21:53:25 2013  <<<
    iter.           Energy         DeltaE       DeltaRho 
    ------------------------------------------------------
     -  10 steepest descent iterations performed
      10   -0.3145849563E+03   -0.41958E+01    0.10150E+02
     -  10 steepest descent iterations performed
      20   -0.3355545555E+03   -0.44363E+00    0.15239E+00
     -  10 steepest descent iterations performed
      30   -0.3381064349E+03   -0.12123E+00    0.27915E-01
     -  10 steepest descent iterations performed
      40   -0.3389259076E+03   -0.42133E-01    0.71237E-02
     -  10 steepest descent iterations performed
      50   -0.3392880807E+03   -0.21234E-01    0.40099E-02
     -  10 steepest descent iterations performed
      60   -0.3394838041E+03   -0.11906E-01    0.23203E-02
     -  10 steepest descent iterations performed
      70   -0.3396026813E+03   -0.75181E-02    0.17672E-02
      80   -0.3397572199E+03   -0.47722E-02    0.83523E-02
      90   -0.3397859247E+03   -0.30570E-02    0.63081E-03
     100   -0.3398197691E+03   -0.25087E-02    0.22822E-02
     110   -0.3398379717E+03   -0.10416E-02    0.61338E-03
     120   -0.3398493243E+03   -0.15857E-02    0.45051E-03
     -  10 steepest descent iterations performed
     130   -0.3398590578E+03   -0.49339E-03    0.83753E-04
     140   -0.3398674616E+03   -0.94446E-03    0.29181E-03
     -  10 steepest descent iterations performed
     150   -0.3398717741E+03   -0.22197E-03    0.49035E-04
     160   -0.3398748166E+03   -0.33022E-03    0.13164E-03
     -  10 steepest descent iterations performed
     170   -0.3398775687E+03   -0.13681E-03    0.41845E-04
     180   -0.3398793677E+03   -0.21181E-03    0.74629E-04
     -  10 steepest descent iterations performed
     190   -0.3398812930E+03   -0.99748E-04    0.40624E-04
     200   -0.3398824484E+03   -0.12096E-03    0.49662E-04
     -  10 steepest descent iterations performed
     210   -0.3398838213E+03   -0.71640E-04    0.32323E-04
     220   -0.3398846592E+03   -0.96855E-04    0.37191E-04
     -  10 steepest descent iterations performed
     230   -0.3398857025E+03   -0.56712E-04    0.29881E-04
     240   -0.3398863127E+03   -0.61581E-04    0.28641E-04
     -  10 steepest descent iterations performed
     250   -0.3398871114E+03   -0.43803E-04    0.22996E-04
     260   -0.3398875960E+03   -0.54576E-04    0.24181E-04
     -  10 steepest descent iterations performed
     270   -0.3398882425E+03   -0.36635E-04    0.21372E-04
     280   -0.3398886218E+03   -0.37386E-04    0.20098E-04
     -  10 steepest descent iterations performed
     290   -0.3398891449E+03   -0.29767E-04    0.16658E-04
     300   -0.3398894645E+03   -0.35494E-04    0.18015E-04
     -  10 steepest descent iterations performed
     310   -0.3398899091E+03   -0.26024E-04    0.15884E-04
     320   -0.3398901723E+03   -0.25639E-04    0.15589E-04
     330   -0.3398924584E+03   -0.13957E-03    0.12903E-02
     -  10 steepest descent iterations performed
     340   -0.3398931321E+03   -0.22592E-04    0.72384E-05
     350   -0.3398932202E+03   -0.87564E-05    0.31865E-05
     360   -0.3398935050E+03   -0.29705E-04    0.55983E-04
     -  10 steepest descent iterations performed
     370   -0.3398937612E+03   -0.90553E-05    0.57763E-05
     380   -0.3398938408E+03   -0.10008E-04    0.38076E-05
     -  10 steepest descent iterations performed
     390   -0.3398939610E+03   -0.11869E-04    0.49406E-05
     -  10 steepest descent iterations performed
     400   -0.3398940631E+03   -0.86049E-05    0.39006E-05
     410   -0.3398944091E+03   -0.68573E-04    0.12689E-03
     -  10 steepest descent iterations performed
     420   -0.3398947457E+03   -0.82541E-05    0.69602E-05
     430   -0.3398947947E+03   -0.49316E-05    0.15291E-05
     440   -0.3398949921E+03   -0.13616E-04    0.43278E-04
     -  10 steepest descent iterations performed
     450   -0.3398952022E+03   -0.68808E-05    0.28046E-05
     460   -0.3398952575E+03   -0.10617E-04    0.26667E-05
     -  10 steepest descent iterations performed
     470   -0.3398953461E+03   -0.73208E-05    0.32294E-05
     480   -0.3398954686E+03   -0.77066E-05    0.17822E-04
     -  10 steepest descent iterations performed
     490   -0.3398956260E+03   -0.81797E-05    0.38760E-05
     -  10 steepest descent iterations performed
     500   -0.3398957201E+03   -0.80477E-05    0.93514E-05
     510   -0.3398960268E+03   -0.24739E-04    0.14180E-03
     -  10 steepest descent iterations performed
     520   -0.3398963115E+03   -0.79756E-05    0.22930E-05
     530   -0.3398963345E+03   -0.20507E-05    0.63082E-06
     540   -0.3398963909E+03   -0.58949E-05    0.76978E-05
     -  10 steepest descent iterations performed
     550   -0.3398964509E+03   -0.20142E-05    0.12588E-05
     560   -0.3398964824E+03   -0.31338E-05    0.22463E-05
     -  10 steepest descent iterations performed
     570   -0.3398965215E+03   -0.24346E-05    0.12065E-05
     580   -0.3398965535E+03   -0.41604E-05    0.28983E-05
     -  10 steepest descent iterations performed
     590   -0.3398965945E+03   -0.22925E-05    0.10468E-05
     600   -0.3398966139E+03   -0.16697E-05    0.10045E-05
     610   -0.3398967709E+03   -0.10145E-04    0.97277E-04
     -  10 steepest descent iterations performed
     620   -0.3398968609E+03   -0.17006E-05    0.55597E-06
     630   -0.3398968672E+03   -0.52424E-06    0.12327E-06
     640   -0.3398968751E+03   -0.93016E-06    0.54387E-06
     -  10 steepest descent iterations performed
     650   -0.3398968845E+03   -0.55207E-06    0.22765E-06
     660   -0.3398968920E+03   -0.77266E-06    0.58618E-06
     -  10 steepest descent iterations performed
     670   -0.3398969016E+03   -0.61420E-06    0.23516E-06
     680   -0.3398969060E+03   -0.47949E-06    0.19125E-06
     690   -0.3398969430E+03   -0.56216E-05    0.19919E-04
     -  10 steepest descent iterations performed
     700   -0.3398969667E+03   -0.42081E-06    0.24095E-06
     710   -0.3398969691E+03   -0.14876E-06    0.40713E-07
     720   -0.3398969715E+03   -0.23228E-06    0.89402E-07
     -  10 steepest descent iterations performed
     730   -0.3398969745E+03   -0.31473E-06    0.78365E-07
     -  10 steepest descent iterations performed
     740   -0.3398969766E+03   -0.15370E-06    0.87150E-07
     750   -0.3398969872E+03   -0.79384E-06    0.26224E-05
     -  10 steepest descent iterations performed
     760   -0.3398969962E+03   -0.30437E-06    0.79371E-07
     770   -0.3398969972E+03   -0.97158E-07    0.17935E-07
  *** tolerance ok.    iteration terminated.
     >>>  ITERATION ENDED   AT Tue Mar 12 22:47:58 2013  <<<


          =============  summary of results  =================

 number of electrons: spin up=   48.00000  down=   48.00000 (real space)

 total     energy    :  -0.3398969972E+03 (   -0.42487E+02/ion)
 total orbital energy:  -0.2079011398E+02 (   -0.43313E+00/electron)
 hartree   energy    :   0.1127927777E+04 (    0.23498E+02/electron)
 exc-corr  energy    :  -0.4569333247E+02 (   -0.95194E+00/electron)
 ion-ion   energy    :   0.7949611726E+03 (    0.99370E+02/ion)

 K.S. kinetic energy :   0.1576343836E+03 (    0.32840E+01/electron)
 K.S. V_l  energy    :  -0.2922780666E+03 (   -0.60891E+01/electron)
 K.S. V_nl energy    :  -0.4385149897E+02 (   -0.91357E+00/electron)
 K.S. V_Hart energy  :   0.2255855555E+04 (    0.46997E+02/electron)
 K.S. V_xc energy    :  -0.5955305408E+02 (   -0.12407E+01/electron)
 K.S. V_so energy    :   0.0000000000E+00 (    0.00000E+00/electron)
 Virial Coefficient  :   0.1180055323E+02

 Brillouin zone point:      1
    weight=  0.125000
    k     =<   0.375   0.375   0.000> . <b1,b2,b3> 
          =<   0.419   0.256  -0.000>

 orbital energies:
     0.3027705E+00 (   8.239eV) occ=1.000
     0.2987024E+00 (   8.128eV) occ=1.000
     0.2964106E+00 (   8.066eV) occ=1.000
     0.2918547E+00 (   7.942eV) occ=1.000
     0.2860633E+00 (   7.784eV) occ=1.000
     0.2808962E+00 (   7.644eV) occ=1.000
     0.2717953E+00 (   7.396eV) occ=1.000
     0.2672791E+00 (   7.273eV) occ=1.000
     0.2612622E+00 (   7.109eV) occ=1.000
     0.2523933E+00 (   6.868eV) occ=1.000
     0.2405329E+00 (   6.545eV) occ=1.000
     0.2377486E+00 (   6.470eV) occ=1.000
     0.2280689E+00 (   6.206eV) occ=1.000
     0.2180742E+00 (   5.934eV) occ=1.000
     0.2023996E+00 (   5.508eV) occ=1.000
     0.2007991E+00 (   5.464eV) occ=1.000
     0.1819199E+00 (   4.950eV) occ=1.000
     0.1545364E+00 (   4.205eV) occ=1.000
     0.1419173E+00 (   3.862eV) occ=1.000
     0.1246773E+00 (   3.393eV) occ=1.000
     0.1003709E+00 (   2.731eV) occ=1.000
     0.8233173E-01 (   2.240eV) occ=1.000
    -0.2644243E+00 (  -7.195eV) occ=1.000
    -0.2950974E+00 (  -8.030eV) occ=1.000
    -0.3069334E+00 (  -8.352eV) occ=1.000
    -0.3177752E+00 (  -8.647eV) occ=1.000
    -0.3226990E+00 (  -8.781eV) occ=1.000
    -0.3334548E+00 (  -9.074eV) occ=1.000
    -0.3461531E+00 (  -9.419eV) occ=1.000
    -0.3481607E+00 (  -9.474eV) occ=1.000
    -0.3664788E+00 (  -9.972eV) occ=1.000
    -0.3774101E+00 ( -10.270eV) occ=1.000
    -0.3833391E+00 ( -10.431eV) occ=1.000
    -0.4112578E+00 ( -11.191eV) occ=1.000
    -0.4248876E+00 ( -11.562eV) occ=1.000
    -0.4480879E+00 ( -12.193eV) occ=1.000
    -0.4553172E+00 ( -12.390eV) occ=1.000
    -0.4611309E+00 ( -12.548eV) occ=1.000
    -0.4677972E+00 ( -12.730eV) occ=1.000
    -0.4816924E+00 ( -13.108eV) occ=1.000
    -0.4886644E+00 ( -13.297eV) occ=1.000
    -0.5539726E+00 ( -15.074eV) occ=1.000
    -0.1266598E+01 ( -34.466eV) occ=1.000
    -0.1269988E+01 ( -34.558eV) occ=1.000
    -0.1275945E+01 ( -34.721eV) occ=1.000
    -0.1281870E+01 ( -34.882eV) occ=1.000
    -0.1287688E+01 ( -35.040eV) occ=1.000
    -0.1290474E+01 ( -35.116eV) occ=1.000

 Brillouin zone point:      2
    weight=  0.125000
    k     =<   0.125   0.375   0.000> . <b1,b2,b3> 
          =<   0.140   0.256  -0.000>

 orbital energies:
     0.2966925E+00 (   8.073eV) occ=1.000
     0.2913458E+00 (   7.928eV) occ=1.000
     0.2869930E+00 (   7.810eV) occ=1.000
     0.2818190E+00 (   7.669eV) occ=1.000
     0.2790922E+00 (   7.595eV) occ=1.000
     0.2736412E+00 (   7.446eV) occ=1.000