----------------------------------------
Begin Torque Prologue (Mon Mar 11 03:53:23 2013)
Job ID:           385095.taubm1.campuscluster.illinois.edu
Username:         davis68
Group:            npre_rizwan
Job Name:         U8-110
Limits:           ncpus=1,neednodes=24:ppn=12,nodes=24:ppn=12,walltime=04:00:00
Job Queue:        cse
Account:          NPRE
Nodes:            taub354 taub355 taub356 taub358 taub377 taub411 taub431 taub433 taub434 taub436 taub440 taub442 taub448 taub449 taub453 taub454 taub479 taub492 taub493 taub494 taub496 taub497 taub498 taub502
End Torque Prologue
----------------------------------------
 argument  1 = ./U8-110.nw



============================== echo of input deck ==============================
title "Gamma-uranium (100) adsorption"
echo

permanent_dir ./perm
scratch_dir   ./scratch

start U8-110

memory 2500 mb

nwpw
  # Real-space discretization
  simulation_cell
    ngrid 36 48 360
  end

  # Spin multiplicity---quenched to 1 in the solid state
  mult 1

  # Band, k-point sampling, and parallelism
  monkhorst-pack 4 4 1
  np_dimensions 8 12 8
  mapping 2

  # Periodicity considerations
  ewald_rcut 3.0
  ewald_ncut 8

  # Simulation parameters
  #restricted    # DFT||ODFT||RESTRICTED||UNRESTRICTED
  xc pbe96
  cutoff 90.0
  loop 10 300
  tolerances 1.0e-7 1.0e-7
end
set nwpw:minimizer      2
set nwpw:lcao_skip      .true.
set nwpw:kbpp_ray       .true.
set nwpw:kbpp_filter    .true.

## Optimization ##
driver
  #clear                # Deletes all restart data
  loose               # Specify loose, default, or tight convergence
  xyz U8O2     # Output XYZ file of geometry at each stage
  maxiter 80
end
set driver:linopt 0
set nwpw:cif_filename U8O2-110.opt
set nwpw:psi_nolattice .true.

#       (110) gamma-uranium surface with surface displacements:	15.30%	and X displacement of	2.000	Å
geometry	center	noautosym	noautoz	print
	system	crystal
	lat_a	3.440
	lat_b	4.865
	lat_c	26.595
	alpha	90.0d0
	beta	90.0d0
	gamma	90.0d0
	end
	U1	0.00000	0.00000	0.66893
	U2	0.50000	0.50000	0.66893
	U3	0.00000	0.50000	0.59146
	U4	0.50000	0.00000	0.59146
	U5	0.00000	0.00000	0.50000
	U6	0.50000	0.50000	0.50000
	U7	0.00000	0.50000	0.42253
	U8	0.50000	0.00000	0.42253
end
constraints surf
  fix atom 1:6
end
set constraints surf
task band energy ignore

# A.M.D.G.
================================================================================


                                         
                                         


             Northwest Computational Chemistry Package (NWChem) 6.1.1
             --------------------------------------------------------


                    Environmental Molecular Sciences Laboratory
                       Pacific Northwest National Laboratory
                                Richland, WA 99352

                              Copyright (c) 1994-2012
                       Pacific Northwest National Laboratory
                            Battelle Memorial Institute

             NWChem is an open-source computational chemistry package
                        distributed under the terms of the
                      Educational Community License (ECL) 2.0
             A copy of the license is included with this distribution
                              in the LICENSE.TXT file

                                  ACKNOWLEDGMENT
                                  --------------

            This software and its documentation were developed at the
            EMSL at Pacific Northwest National Laboratory, a multiprogram
            national laboratory, operated for the U.S. Department of Energy
            by Battelle under Contract Number DE-AC05-76RL01830. Support
            for this work was provided by the Department of Energy Office
            of Biological and Environmental Research, Office of Basic
            Energy Sciences, and the Office of Advanced Scientific Computing.


           Job information
           ---------------

    hostname        = taub502
    program         = /home/davis68/bin/nwchem-dev
    date            = Mon Mar 11 03:53:27 2013

    compiled        = Wed_Oct_03_09:41:00_2012
    source          = /home/davis68/nwchem/nwchem-src-2012-Aug-27/
    nwchem branch   = Development
    nwchem revision = 22805
    ga revision     = 10079
    input           = ./U8-110.nw
    prefix          = U8-110.
    data base       = ./perm/U8-110.db
    status          = startup
    nproc           =      288
    time left       =     -1s



           Memory information
           ------------------

    heap     =   81920001 doubles =    625.0 Mbytes
    stack    =   81920001 doubles =    625.0 Mbytes
    global   =  163840000 doubles =   1250.0 Mbytes (distinct from heap & stack)
    total    =  327680002 doubles =   2500.0 Mbytes
    verify   = yes
    hardfail = no 


           Directory information
           ---------------------

  0 permanent = ./perm
  0 scratch   = ./scratch




                                NWChem Input Module
                                -------------------


                          Gamma-uranium (100) adsorption
                          ------------------------------

  !!!!!!!!!  geom_3d NEEDS TESTING !!!!!!!!!! 


                             Geometry "geometry" -> ""
                             -------------------------

 Output coordinates in angstroms (scale by  1.889725989 to convert to a.u.)

  No.       Tag          Charge          X              Y              Z
 ---- ---------------- ---------- -------------- -------------- --------------
    1 U1                  92.0000     0.00000000     0.00000000    17.79019335
    2 U2                  92.0000     1.72000000     2.43250000    17.79019335
    3 U3                  92.0000     0.00000000     2.43250000    15.72987870
    4 U4                  92.0000     1.72000000     0.00000000    15.72987870
    5 U5                  92.0000     0.00000000     0.00000000    13.29750000
    6 U6                  92.0000     1.72000000     2.43250000    13.29750000
    7 U7                  92.0000     0.00000000     2.43250000    11.23718535
    8 U8                  92.0000     1.72000000     0.00000000    11.23718535

      Lattice Parameters 
      ------------------ 

      lattice vectors in angstroms (scale by  1.889725989 to convert to a.u.)

      a1=<   3.440   0.000   0.000 >
      a2=<   0.000   4.865   0.000 >
      a3=<   0.000   0.000  26.595 >
      a=       3.440 b=      4.865 c=      26.595
      alpha=  90.000 beta=  90.000 gamma=  90.000
      omega=   445.1

      reciprocal lattice vectors in a.u.

      b1=<   0.967   0.000  -0.000 >
      b2=<  -0.000   0.683  -0.000 >
      b3=<   0.000   0.000   0.125 >

      Atomic Mass 
      ----------- 

      U1               238.050800
      U2               238.050800
      U3               238.050800
      U4               238.050800
      U5               238.050800
      U6               238.050800
      U7               238.050800
      U8               238.050800


 ==============================================================================
                                internuclear distances
 ------------------------------------------------------------------------------
       center one      |      center two      | atomic units |  angstroms
 ------------------------------------------------------------------------------
    2 U2               |   1 U1               |     5.62982  |     2.97917
    3 U3               |   1 U1               |     6.02403  |     3.18778
    3 U3               |   2 U2               |     5.07183  |     2.68390
    4 U4               |   1 U1               |     5.07183  |     2.68390
    4 U4               |   2 U2               |     6.02403  |     3.18778
    4 U4               |   3 U3               |     5.62982  |     2.97917
    5 U5               |   3 U3               |     6.50064  |     3.43999
    5 U5               |   4 U4               |     5.62963  |     2.97907
    6 U6               |   3 U3               |     5.62963  |     2.97907
    6 U6               |   4 U4               |     6.50064  |     3.43999
    6 U6               |   5 U5               |     5.62982  |     2.97917
    7 U7               |   5 U5               |     6.02403  |     3.18778
    7 U7               |   6 U6               |     5.07183  |     2.68390
    8 U8               |   5 U5               |     5.07183  |     2.68390
    8 U8               |   6 U6               |     6.02403  |     3.18778
    8 U8               |   7 U7               |     5.62982  |     2.97917
 ------------------------------------------------------------------------------
                         number of included internuclear distances:         16
 ==============================================================================



 ==============================================================================
                                 internuclear angles
 ------------------------------------------------------------------------------
        center 1       |       center 2       |       center 3       |  degrees
 ------------------------------------------------------------------------------
    1 U1               |   2 U2               |   3 U3               |    68.28
    2 U2               |   1 U1               |   4 U4               |    68.28
    1 U1               |   4 U4               |   3 U3               |    68.28
    1 U1               |   2 U2               |   3 U3               |    68.28
    2 U2               |   1 U1               |   4 U4               |    68.28
    2 U2               |   3 U3               |   4 U4               |    68.28
    3 U3               |   2 U2               |   1 U1               |    68.28
    3 U3               |   4 U4               |   1 U1               |    68.28
    1 U1               |   3 U3               |   5 U5               |    85.26
    1 U1               |   3 U3               |   6 U6               |   121.85
    2 U2               |   3 U3               |   4 U4               |    68.28
    2 U2               |   3 U3               |   5 U5               |   122.87
    2 U2               |   3 U3               |   6 U6               |   104.88
    3 U3               |   4 U4               |   5 U5               |    70.53
    4 U4               |   3 U3               |   6 U6               |    70.53
    3 U3               |   6 U6               |   5 U5               |    70.53
    4 U4               |   1 U1               |   2 U2               |    68.28
    1 U1               |   4 U4               |   3 U3               |    68.28
    1 U1               |   4 U4               |   5 U5               |   104.88
    1 U1               |   4 U4               |   6 U6               |   122.87
    4 U4               |   3 U3               |   2 U2               |    68.28
    2 U2               |   4 U4               |   5 U5               |   121.85
    2 U2               |   4 U4               |   6 U6               |    85.26
    3 U3               |   4 U4               |   5 U5               |    70.53
    4 U4               |   3 U3               |   6 U6               |    70.53
    4 U4               |   5 U5               |   6 U6               |    70.53
    5 U5               |   4 U4               |   3 U3               |    70.53
    5 U5               |   6 U6               |   3 U3               |    70.53
    3 U3               |   5 U5               |   7 U7               |    85.26
    3 U3               |   5 U5               |   8 U8               |   122.87
    4 U4               |   5 U5               |   6 U6               |    70.53
    4 U4               |   5 U5               |   7 U7               |   121.85
    4 U4               |   5 U5               |   8 U8               |   104.88
    5 U5               |   6 U6               |   7 U7               |    68.28
    6 U6               |   5 U5               |   8 U8               |    68.28
    5 U5               |   8 U8               |   7 U7               |    68.28
    6 U6               |   3 U3               |   4 U4               |    70.53
    3 U3               |   6 U6               |   5 U5               |    70.53
    3 U3               |   6 U6               |   7 U7               |   104.88
    3 U3               |   6 U6               |   8 U8               |   121.85
    6 U6               |   5 U5               |   4 U4               |    70.53
    4 U4               |   6 U6               |   7 U7               |   122.87
    4 U4               |   6 U6               |   8 U8               |    85.26
    5 U5               |   6 U6               |   7 U7               |    68.28
    6 U6               |   5 U5               |   8 U8               |    68.28
    6 U6               |   7 U7               |   8 U8               |    68.28
    7 U7               |   6 U6               |   5 U5               |    68.28
    7 U7               |   8 U8               |   5 U5               |    68.28
    6 U6               |   7 U7               |   8 U8               |    68.28
    8 U8               |   5 U5               |   6 U6               |    68.28
    5 U5               |   8 U8               |   7 U7               |    68.28
    8 U8               |   7 U7               |   6 U6               |    68.28
 ------------------------------------------------------------------------------
                            number of included internuclear angles:         52
 ==============================================================================



 fixed atoms                  :   1     2     3     4
                                  5     6


 no springs found
                         NWChem Constraints Module
                         -------------------------
 General Information
 -------------------
 fixed atoms                  :   1     2     3     4
                                  5     6


 no springs found
 no springs found
          **********************************************************
          *                                                        *
          *                   NWPW BAND Calculation                *
          *                                                        *
          *  [(bundled Grassman/Stiefel manifold implementation)]  *
          *                                                        *
          *         [ NorthWest Chemistry implementation ]         *
          *                                                        *
          *                version #1.10   01/31/03                *
          *                                                        *
          *  A pseudopotential plane-wave band structure program   *
          *  with Brillouin zone sampling for optimizing crystals, *
          *  slabs, and polymers.  Developed by Eric J. Bylaska    *
          *  , Edoardo Apra, and Patrick Nichols.                  *
          *                                                        *
          **********************************************************
     >>>  JOB STARTED       AT Mon Mar 11 03:53:28 2013  <<<
          ================ input data ========================
  library name resolved from: environment
  NWCHEM_NWPW_LIBRARY set to: </home/davis68/nwchem/nwchem-6.1/src/nwpw/libraryps/>
 Generating 1d pseudopotential for U   

 Generated formatted_filename: ./perm/U.cpp
 - Spline fitted, nray=27864 -
 - filtered -
 random planewave guess, initial psi:U8-110.movecs                                     
 -   spin, nalpha, nbeta:                    1                   56                    0

 input psi filename:./perm/U8-110.movecs
Warning - Orthogonalization performed, spin,zone: 1   1
        - error(before)=  0.649905E+01 (  0.495010E+02)
        - error(after)=   0.710543E-14 (  0.560000E+02)
Warning - Orthogonalization performed, spin,zone: 1   2
        - error(before)=  0.649963E+01 (  0.495004E+02)
        - error(after)=   0.000000E+00 (  0.560000E+02)
Warning - Orthogonalization performed, spin,zone: 1   3
        - error(before)=  0.650053E+01 (  0.494995E+02)
        - error(after)=   0.142109E-13 (  0.560000E+02)
Warning - Orthogonalization performed, spin,zone: 1   4
        - error(before)=  0.649915E+01 (  0.495008E+02)
        - error(after)=   0.710543E-14 (  0.560000E+02)
Warning - Orthogonalization performed, spin,zone: 1   5
        - error(before)=  0.649786E+01 (  0.495021E+02)
        - error(after)=   0.142109E-13 (  0.560000E+02)
Warning - Orthogonalization performed, spin,zone: 1   6
        - error(before)=  0.650015E+01 (  0.494999E+02)
        - error(after)=   0.710543E-14 (  0.560000E+02)
Warning - Orthogonalization performed, spin,zone: 1   7
        - error(before)=  0.649903E+01 (  0.495010E+02)
        - error(after)=   0.000000E+00 (  0.560000E+02)
Warning - Orthogonalization performed, spin,zone: 1   8
        - error(before)=  0.649733E+01 (  0.495027E+02)
        - error(after)=   0.142109E-13 (  0.560000E+02)

 Fixed ion positions:    1    2    3    4    5    6


 number of processors used:             288
 processor grid           :  36 x   1 x   8
 parallel mapping         :     2d  hilbert

 options:
      boundary conditions  = periodic    (version3)
      electron spin        = restricted
      exchange-correlation = PBE96 (White and Bird) parameterization

 elements involved in the cluster:
      1: U     core charge:14.0  lmax=3
             comment    : Parameterized (J.Chem. Phys. vol 128, 124507 (2008)) Troullier-Martins psp
             pseudpotential type            :   0
             highest angular component      :   3
             local potential used           :   0
             number of non-local projections:  15
             cutoff =   1.421   1.602   2.400   1.250

 total charge:   0.000

 atomic composition:
     U   :  8

 number of electrons: spin up=   56.00  spin down=   56.00 (fourier space)
 number of orbitals:  spin up=      56  spin down=      56 (fourier space)

 supercell:
      lattice:    a1=<   6.501   0.000   0.000 >
                  a2=<   0.000   9.194   0.000 >
                  a3=<   0.000   0.000  50.257 >
      reciprocal: b1=<   0.967   0.000  -0.000 >
                  b2=<  -0.000   0.683  -0.000 >
                  b3=<   0.000   0.000   0.125 >

      lattice:    a=   6.501    b=   9.194     c=  50.257
              alpha=  90.000 beta=  90.000 gamma=  90.000
      volume :     3003.6
      ewald summation: cut radius=    3.00  and  8
                        madelung=-3.45682194

 brillouin zone:
      number of zone points:     8
      weight=   0.125  ks=<   0.375   0.375   0.000 >, k=<   0.362   0.256  -0.000>
      weight=   0.125  ks=<   0.125   0.375   0.000 >, k=<   0.121   0.256  -0.000>
      weight=   0.125  ks=<  -0.125   0.375   0.000 >, k=<  -0.121   0.256  -0.000>
      weight=   0.125  ks=<   0.375  -0.375   0.000 >, k=<   0.362  -0.256  -0.000>
      weight=   0.125  ks=<   0.375   0.125   0.000 >, k=<   0.362   0.085  -0.000>
      weight=   0.125  ks=<   0.125   0.125   0.000 >, k=<   0.121   0.085  -0.000>
      weight=   0.125  ks=<   0.125  -0.125   0.000 >, k=<   0.121  -0.085  -0.000>
      weight=   0.125  ks=<   0.375  -0.125   0.000 >, k=<   0.362  -0.085  -0.000>

 computational grids:
      density     cutoff=134.521  fft=  36x  48x 360(   223609 waves     6211 per task)
      wavefnc   1 cutoff= 90.000  fft=  36x  48x 360(   122493 waves     3402 per task)
      wavefnc   2 cutoff= 90.000  fft=  36x  48x 360(   122404 waves     3400 per task)
      wavefnc   3 cutoff= 90.000  fft=  36x  48x 360(   122404 waves     3400 per task)
      wavefnc   4 cutoff= 90.000  fft=  36x  48x 360(   122493 waves     3402 per task)
      wavefnc   5 cutoff= 90.000  fft=  36x  48x 360(   122618 waves     3406 per task)
      wavefnc   6 cutoff= 90.000  fft=  36x  48x 360(   122427 waves     3400 per task)
      wavefnc   7 cutoff= 90.000  fft=  36x  48x 360(   122427 waves     3400 per task)
      wavefnc   8 cutoff= 90.000  fft=  36x  48x 360(   122618 waves     3406 per task)

 technical parameters:
      time step=      5.80     ficticious mass=  400000.0
      tolerance=.100E-06 (energy)   0.100E-06 (density)
      maximum iterations =      3000 (   10 inner    300 outer )



= energy calculation =


          ======== bundled Grassmann lmbfgs iteration ========
     >>>  ITERATION STARTED AT Mon Mar 11 03:57:34 2013  <<<
    iter.           Energy         DeltaE       DeltaRho 
    ------------------------------------------------------
     -  10 steepest descent iterations performed
      10   -0.3829856732E+03   -0.45985E+01    0.88714E+01
     -  10 steepest descent iterations performed
      20   -0.4052402378E+03   -0.46492E+00    0.10496E+00
     -  10 steepest descent iterations performed
      30   -0.4080519759E+03   -0.15842E+00    0.25791E-01
     -  10 steepest descent iterations performed
      40   -0.4090737425E+03   -0.54948E-01    0.93358E-02
     -  10 steepest descent iterations performed
      50   -0.4095491392E+03   -0.28623E-01    0.45449E-02
     -  10 steepest descent iterations performed
      60   -0.4098109817E+03   -0.15394E-01    0.20003E-02
     -  10 steepest descent iterations performed
      70   -0.4099682246E+03   -0.96894E-02    0.15916E-02
      80   -0.4101697658E+03   -0.71539E-02    0.70730E-02
      90   -0.4102113827E+03   -0.46850E-02    0.62195E-03
     100   -0.4102638459E+03   -0.44895E-02    0.26556E-02
     110   -0.4102922811E+03   -0.15789E-02    0.67650E-03
     120   -0.4103114446E+03   -0.27126E-02    0.53556E-03
     -  10 steepest descent iterations performed
     130   -0.4103283903E+03   -0.82562E-03    0.92190E-04
     140   -0.4103439717E+03   -0.18691E-02    0.33964E-03
     -  10 steepest descent iterations performed
     150   -0.4103518084E+03   -0.39465E-03    0.71816E-04
     160   -0.4103576919E+03   -0.69412E-03    0.16733E-03
     -  10 steepest descent iterations performed
     170   -0.4103631443E+03   -0.25161E-03    0.73126E-04
     180   -0.4103668861E+03   -0.40407E-03    0.10093E-03
     -  10 steepest descent iterations performed
     190   -0.4103710518E+03   -0.22823E-03    0.92483E-04
     200   -0.4103736480E+03   -0.27430E-03    0.69167E-04
     -  10 steepest descent iterations performed
     210   -0.4103768580E+03   -0.16308E-03    0.72841E-04
     220   -0.4103788529E+03   -0.20636E-03    0.51426E-04
     -  10 steepest descent iterations performed
     230   -0.4103814077E+03   -0.14614E-03    0.71765E-04
     240   -0.4103829133E+03   -0.15059E-03    0.36274E-04
     -  10 steepest descent iterations performed
     250   -0.4103849072E+03   -0.10487E-03    0.52058E-04
     260   -0.4103861070E+03   -0.12138E-03    0.29896E-04
     -  10 steepest descent iterations performed
     270   -0.4103877009E+03   -0.92417E-04    0.47287E-04
     280   -0.4103886160E+03   -0.89059E-04    0.21192E-04
     290   -0.4103941778E+03   -0.25809E-03    0.78367E-03
     -  10 steepest descent iterations performed
     300   -0.4103955019E+03   -0.44207E-04    0.11135E-04
     310   -0.4103956788E+03   -0.15459E-04    0.50522E-05
     320   -0.4103961118E+03   -0.39532E-04    0.39329E-04
     -  10 steepest descent iterations performed
     330   -0.4103964851E+03   -0.14770E-04    0.55404E-05
     340   -0.4103966181E+03   -0.20046E-04    0.34842E-05
     -  10 steepest descent iterations performed
     350   -0.4103968067E+03   -0.17026E-04    0.47394E-05
     360   -0.4103970229E+03   -0.18607E-04    0.14792E-04
     -  10 steepest descent iterations performed
     370   -0.4103972863E+03   -0.13691E-04    0.60858E-05
     380   -0.4103973734E+03   -0.11030E-04    0.21055E-05
     390   -0.4103979210E+03   -0.73982E-04    0.12637E-03
     -  10 steepest descent iterations performed
     400   -0.4103983928E+03   -0.97453E-05    0.17800E-05
     410   -0.4103984581E+03   -0.70209E-05    0.16586E-05
     420   -0.4103985697E+03   -0.67032E-05    0.63722E-05
     430   -0.4103992995E+03   -0.13192E-03    0.34208E-03
     -  10 steepest descent iterations performed
     440   -0.4103997786E+03   -0.10957E-04    0.14064E-05
     450   -0.4103998531E+03   -0.26909E-05    0.80736E-06
     460   -0.4103998914E+03   -0.34227E-05    0.78537E-06
     -  10 steepest descent iterations performed
     470   -0.4103999422E+03   -0.76685E-05    0.14727E-05
     -  10 steepest descent iterations performed
     480   -0.4103999803E+03   -0.20355E-05    0.50247E-06
     490   -0.4104000954E+03   -0.18225E-04    0.19661E-04
     -  10 steepest descent iterations performed
     500   -0.4104001968E+03   -0.37793E-05    0.67923E-06
     510   -0.4104002207E+03   -0.23959E-05    0.42625E-06
     520   -0.4104002543E+03   -0.40387E-05    0.17646E-05
     -  10 steepest descent iterations performed
     530   -0.4104002962E+03   -0.18745E-05    0.40418E-06
     540   -0.4104003226E+03   -0.28484E-05    0.10071E-05
     -  10 steepest descent iterations performed
     550   -0.4104003571E+03   -0.29743E-05    0.59112E-06
     -  10 steepest descent iterations performed
     560   -0.4104003819E+03   -0.22220E-05    0.69329E-06
     570   -0.4104004474E+03   -0.58611E-05    0.99806E-05
     -  10 steepest descent iterations performed
     580   -0.4104005119E+03   -0.29405E-05    0.29710E-06
     590   -0.4104005238E+03   -0.10694E-05    0.14091E-06
     600   -0.4104005467E+03   -0.23754E-05    0.13477E-05
     -  10 steepest descent iterations performed
     610   -0.4104005737E+03   -0.95887E-06    0.16279E-06
     620   -0.4104005901E+03   -0.19607E-05    0.65118E-06
     -  10 steepest descent iterations performed
     630   -0.4104006107E+03   -0.16947E-05    0.29847E-06
     640   -0.4104006245E+03   -0.14783E-05    0.50255E-06
     650   -0.4104006961E+03   -0.11046E-04    0.21085E-04
     -  10 steepest descent iterations performed
     660   -0.4104007584E+03   -0.73261E-06    0.31735E-06
     670   -0.4104007684E+03   -0.66876E-06    0.17531E-06
     680   -0.4104007752E+03   -0.71734E-06    0.20985E-06
     -  10 steepest descent iterations performed
     690   -0.4104007869E+03   -0.12651E-05    0.24254E-06
     -  10 steepest descent iterations performed
     700   -0.4104007949E+03   -0.54178E-06    0.20260E-06
     710   -0.4104008300E+03   -0.32105E-05    0.85751E-05
     -  10 steepest descent iterations performed
     720   -0.4104008610E+03   -0.17865E-05    0.17730E-06
     730   -0.4104008655E+03   -0.31196E-06    0.52311E-07
     740   -0.4104008727E+03   -0.10830E-05    0.42655E-06
     -  10 steepest descent iterations performed
     750   -0.4104008809E+03   -0.25693E-06    0.52628E-07
     760   -0.4104008893E+03   -0.78638E-06    0.55452E-06
     -  10 steepest descent iterations performed
     770   -0.4104008982E+03   -0.56822E-06    0.92832E-07
     780   -0.4104009021E+03   -0.56520E-06    0.10562E-06
     790   -0.4104009217E+03   -0.26913E-05    0.45548E-05
     -  10 steepest descent iterations performed
     800   -0.4104009404E+03   -0.24754E-06    0.82943E-07
     810   -0.4104009437E+03   -0.30958E-06    0.55213E-07
     -  10 steepest descent iterations performed
     820   -0.4104009480E+03   -0.75421E-06    0.12744E-06
     -  10 steepest descent iterations performed
     830   -0.4104009516E+03   -0.14268E-06    0.38245E-07
     840   -0.4104009602E+03   -0.10074E-05    0.11918E-05
     -  10 steepest descent iterations performed
     850   -0.4104009686E+03   -0.37391E-06    0.43079E-07
     860   -0.4104009706E+03   -0.23222E-06    0.39899E-07
     870   -0.4104009766E+03   -0.71017E-06    0.64738E-06
     -  10 steepest descent iterations performed
     880   -0.4104009830E+03   -0.23761E-06    0.47492E-07
     890   -0.4104009847E+03   -0.14533E-06    0.39032E-07
     900   -0.4104009891E+03   -0.51126E-06    0.42284E-06
     -  10 steepest descent iterations performed
     910   -0.4104009939E+03   -0.21374E-06    0.25636E-07
     920   -0.4104009957E+03   -0.24886E-06    0.46710E-07
     -  10 steepest descent iterations performed
     930   -0.4104009981E+03   -0.20648E-06    0.44614E-07
     940   -0.4104010013E+03   -0.29647E-06    0.26620E-06
     -  10 steepest descent iterations performed
     950   -0.4104010052E+03   -0.25237E-06    0.29862E-07
     960   -0.4104010064E+03   -0.13744E-06    0.27096E-07
     970   -0.4104010108E+03   -0.74139E-06    0.58778E-06
     -  10 steepest descent iterations performed
     980   -0.4104010154E+03   -0.11644E-06    0.19033E-07
     990   -0.4104010155E+03   -0.95817E-07    0.12255E-09
  *** tolerance ok.    iteration terminated.
     >>>  ITERATION ENDED   AT Mon Mar 11 04:44:24 2013  <<<


          =============  summary of results  =================

 number of electrons: spin up=   56.00000  down=   56.00000 (real space)

 total     energy    :  -0.4104010155E+03 (   -0.51300E+02/ion)
 total orbital energy:  -0.3249988745E+02 (   -0.58036E+00/electron)
 hartree   energy    :   0.2481646309E+04 (    0.44315E+02/electron)
 exc-corr  energy    :  -0.5163738656E+02 (   -0.92210E+00/electron)
 ion-ion   energy    :   0.2088025291E+04 (    0.26100E+03/ion)

 K.S. kinetic energy :   0.1820650914E+03 (    0.32512E+01/electron)
 K.S. V_l  energy    :  -0.6303352751E+03 (   -0.11256E+02/electron)
 K.S. V_nl energy    :  -0.5758553817E+02 (   -0.10283E+01/electron)
 K.S. V_Hart energy  :   0.4963292618E+04 (    0.88630E+02/electron)
 K.S. V_xc energy    :  -0.6735727636E+02 (   -0.12028E+01/electron)
 K.S. V_so energy    :   0.0000000000E+00 (    0.00000E+00/electron)
 Virial Coefficient  :   0.2311269281E+02

 Brillouin zone point:      1
    weight=  0.125000
    k     =<   0.375   0.375   0.000> . <b1,b2,b3> 
          =<   0.362   0.256  -0.000>

 orbital energies:
     0.2479627E+00 (   6.747eV) occ=1.000
     0.2467791E+00 (   6.715eV) occ=1.000
     0.2442212E+00 (   6.646eV) occ=1.000