----------------------------------------
Begin Torque Prologue (Sat Mar  9 22:50:35 2013)
Job ID:           384874.taubm1.campuscluster.illinois.edu
Username:         davis68
Group:            npre_rizwan
Job Name:         U8H-110-ctr
Limits:           ncpus=1,neednodes=24:ppn=12,nodes=24:ppn=12,walltime=12:00:00
Job Queue:        cse
Account:          NPRE
Nodes:            taub092 taub093 taub094 taub095 taub243 taub247 taub248 taub268 taub297 taub310 taub320 taub322 taub381 taub397 taub399 taub403 taub428 taub432 taub435 taub471 taub476 taub477 taub481 taub489
End Torque Prologue
----------------------------------------
 argument  1 = ./U8H-110-ctr.nw



============================== echo of input deck ==============================
title "Gamma-uranium (110) adsorption"
echo

permanent_dir ./perm
scratch_dir   ./scratch

start U8H-110-ctr

memory 2500 mb

nwpw
  # Real-space discretization
  simulation_cell
    ngrid 36 48 360
  end

  # Spin multiplicity---quenched to 1 in the solid state
  mult 2

  # Band, k-point sampling, and parallelism
  monkhorst-pack 4 4 1
  np_dimensions 8 12 12
  mapping 2

  # Periodicity considerations
  ewald_rcut 3.0
  ewald_ncut 8

  # Simulation parameters
  #restricted    # DFT||ODFT||RESTRICTED||UNRESTRICTED
  xc pbe96
  cutoff 90.0
  loop 10 300
end
set nwpw:minimizer      2
set nwpw:lcao_skip      .true.
set nwpw:kbpp_ray       .true.
set nwpw:cif_filename U6-pbe96.opt

#       (110) gamma-uranium surface with surface displacements:	15.30%	and X displacement of	-1.000	Å
geometry	center	noautosym	noautoz	print
	system	crystal
	lat_a	3.440
	lat_b	4.865
	lat_c	26.595
	alpha	90.0d0
	beta	90.0d0
	gamma	90.0d0
	end
	U1	0.00000	0.00000	0.66893
	U2	0.50000	0.50000	0.66893
	U3	0.00000	0.50000	0.59146
	U4	0.50000	0.00000	0.59146
	U5	0.00000	0.00000	0.50000
	U6	0.50000	0.50000	0.50000
	U7	0.00000	0.50000	0.42253
	U8	0.50000	0.00000	0.42253
	ctr	0.50000	0.00000	0.63133
end
#task band energy

#nwpw
#  simulation_cell
#    ngrid 64 72 360 #64 92 512
#  end
#end

#       (110) gamma-uranium surface with surface displacements:	15.30%	and X displacement of	1.250	Å
geometry	center	noautosym	noautoz	print
	system	crystal
	lat_a	3.440
	lat_b	4.865
	lat_c	26.595
	alpha	90.0d0
	beta	90.0d0
	gamma	90.0d0
	end
	U1	0.00000	0.00000	0.66893
	U2	0.50000	0.50000	0.66893
	U3	0.00000	0.50000	0.59146
	U4	0.50000	0.00000	0.59146
	U5	0.00000	0.00000	0.50000
	U6	0.50000	0.50000	0.50000
	U7	0.00000	0.50000	0.42253
	U8	0.50000	0.00000	0.42253
	H1	0.00000	0.00000	0.71594
end
task band energy

#       (110) gamma-uranium surface with surface displacements:	15.30%	and X displacement of	1.500	Å
geometry	center	noautosym	noautoz	print
	system	crystal
	lat_a	3.440
	lat_b	4.865
	lat_c	26.595
	alpha	90.0d0
	beta	90.0d0
	gamma	90.0d0
	end
	U1	0.00000	0.00000	0.66893
	U2	0.50000	0.50000	0.66893
	U3	0.00000	0.50000	0.59146
	U4	0.50000	0.00000	0.59146
	U5	0.00000	0.00000	0.50000
	U6	0.50000	0.50000	0.50000
	U7	0.00000	0.50000	0.42253
	U8	0.50000	0.00000	0.42253
	H1	0.00000	0.00000	0.72534
end
task band energy

# A.M.D.G.
================================================================================


                                         
                                         


             Northwest Computational Chemistry Package (NWChem) 6.1.1
             --------------------------------------------------------


                    Environmental Molecular Sciences Laboratory
                       Pacific Northwest National Laboratory
                                Richland, WA 99352

                              Copyright (c) 1994-2012
                       Pacific Northwest National Laboratory
                            Battelle Memorial Institute

             NWChem is an open-source computational chemistry package
                        distributed under the terms of the
                      Educational Community License (ECL) 2.0
             A copy of the license is included with this distribution
                              in the LICENSE.TXT file

                                  ACKNOWLEDGMENT
                                  --------------

            This software and its documentation were developed at the
            EMSL at Pacific Northwest National Laboratory, a multiprogram
            national laboratory, operated for the U.S. Department of Energy
            by Battelle under Contract Number DE-AC05-76RL01830. Support
            for this work was provided by the Department of Energy Office
            of Biological and Environmental Research, Office of Basic
            Energy Sciences, and the Office of Advanced Scientific Computing.


           Job information
           ---------------

    hostname        = taub489
    program         = /home/davis68/bin/nwchem-dev
    date            = Sat Mar  9 22:50:39 2013

    compiled        = Wed_Oct_03_09:41:00_2012
    source          = /home/davis68/nwchem/nwchem-src-2012-Aug-27/
    nwchem branch   = Development
    nwchem revision = 22805
    ga revision     = 10079
    input           = ./U8H-110-ctr.nw
    prefix          = U8H-110-ctr.
    data base       = ./perm/U8H-110-ctr.db
    status          = startup
    nproc           =      288
    time left       =     -1s



           Memory information
           ------------------

    heap     =   81920001 doubles =    625.0 Mbytes
    stack    =   81920001 doubles =    625.0 Mbytes
    global   =  163840000 doubles =   1250.0 Mbytes (distinct from heap & stack)
    total    =  327680002 doubles =   2500.0 Mbytes
    verify   = yes
    hardfail = no 


           Directory information
           ---------------------

  0 permanent = ./perm
  0 scratch   = ./scratch




                                NWChem Input Module
                                -------------------


                          Gamma-uranium (110) adsorption
                          ------------------------------

  !!!!!!!!!  geom_3d NEEDS TESTING !!!!!!!!!! 


                             Geometry "geometry" -> ""
                             -------------------------

 Output coordinates in angstroms (scale by  1.889725989 to convert to a.u.)

  No.       Tag          Charge          X              Y              Z
 ---- ---------------- ---------- -------------- -------------- --------------
    1 U1                  92.0000     0.00000000     0.00000000    17.79019335
    2 U2                  92.0000     1.72000000     2.43250000    17.79019335
    3 U3                  92.0000     0.00000000     2.43250000    15.72987870
    4 U4                  92.0000     1.72000000     0.00000000    15.72987870
    5 U5                  92.0000     0.00000000     0.00000000    13.29750000
    6 U6                  92.0000     1.72000000     2.43250000    13.29750000
    7 U7                  92.0000     0.00000000     2.43250000    11.23718535
    8 U8                  92.0000     1.72000000     0.00000000    11.23718535
    9 ctr                  6.0000     1.72000000     0.00000000    16.79022135

      Lattice Parameters 
      ------------------ 

      lattice vectors in angstroms (scale by  1.889725989 to convert to a.u.)

      a1=<   3.440   0.000   0.000 >
      a2=<   0.000   4.865   0.000 >
      a3=<   0.000   0.000  26.595 >
      a=       3.440 b=      4.865 c=      26.595
      alpha=  90.000 beta=  90.000 gamma=  90.000
      omega=   445.1

      reciprocal lattice vectors in a.u.

      b1=<   0.967   0.000  -0.000 >
      b2=<  -0.000   0.683  -0.000 >
      b3=<   0.000   0.000   0.125 >

      Atomic Mass 
      ----------- 

      U1               238.050800
      U2               238.050800
      U3               238.050800
      U4               238.050800
      U5               238.050800
      U6               238.050800
      U7               238.050800
      U8               238.050800
      ctr               12.000000


 ==============================================================================
                                internuclear distances
 ------------------------------------------------------------------------------
       center one      |      center two      | atomic units |  angstroms
 ------------------------------------------------------------------------------
    2 U2               |   1 U1               |     5.62982  |     2.97917
    3 U3               |   1 U1               |     6.02403  |     3.18778
    3 U3               |   2 U2               |     5.07183  |     2.68390
    4 U4               |   1 U1               |     5.07183  |     2.68390
    4 U4               |   2 U2               |     6.02403  |     3.18778
    4 U4               |   3 U3               |     5.62982  |     2.97917
    5 U5               |   3 U3               |     6.50064  |     3.43999
    5 U5               |   4 U4               |     5.62963  |     2.97907
    6 U6               |   3 U3               |     5.62963  |     2.97907
    6 U6               |   4 U4               |     6.50064  |     3.43999
    6 U6               |   5 U5               |     5.62982  |     2.97917
    7 U7               |   5 U5               |     6.02403  |     3.18778
    7 U7               |   6 U6               |     5.07183  |     2.68390
    8 U8               |   5 U5               |     5.07183  |     2.68390
    8 U8               |   6 U6               |     6.02403  |     3.18778
    8 U8               |   7 U7               |     5.62982  |     2.97917
    9 ctr              |   1 U1               |     3.75972  |     1.98956
    9 ctr              |   2 U2               |     4.97002  |     2.63002
    9 ctr              |   4 U4               |     2.00376  |     1.06034
 ------------------------------------------------------------------------------
                         number of included internuclear distances:         19
 ==============================================================================



 ==============================================================================
                                 internuclear angles
 ------------------------------------------------------------------------------
        center 1       |       center 2       |       center 3       |  degrees
 ------------------------------------------------------------------------------
    1 U1               |   2 U2               |   3 U3               |    68.28
    2 U2               |   1 U1               |   4 U4               |    68.28
    1 U1               |   9 ctr              |   2 U2               |    78.98
    1 U1               |   4 U4               |   3 U3               |    68.28
    3 U3               |   1 U1               |   9 ctr              |    71.04
    1 U1               |   9 ctr              |   4 U4               |   120.17
    1 U1               |   2 U2               |   3 U3               |    68.28
    2 U2               |   1 U1               |   4 U4               |    68.28
    2 U2               |   9 ctr              |   1 U1               |    78.98
    2 U2               |   3 U3               |   4 U4               |    68.28
    3 U3               |   2 U2               |   9 ctr              |    73.03
    2 U2               |   9 ctr              |   4 U4               |   112.35
    3 U3               |   2 U2               |   1 U1               |    68.28
    3 U3               |   4 U4               |   1 U1               |    68.28
    1 U1               |   3 U3               |   5 U5               |    85.26
    1 U1               |   3 U3               |   6 U6               |   121.85
    2 U2               |   3 U3               |   4 U4               |    68.28
    2 U2               |   3 U3               |   5 U5               |   122.87
    2 U2               |   3 U3               |   6 U6               |   104.88
    3 U3               |   4 U4               |   5 U5               |    70.53
    4 U4               |   3 U3               |   6 U6               |    70.53
    3 U3               |   6 U6               |   5 U5               |    70.53
    4 U4               |   1 U1               |   2 U2               |    68.28
    1 U1               |   4 U4               |   3 U3               |    68.28
    1 U1               |   4 U4               |   5 U5               |   104.88
    1 U1               |   4 U4               |   6 U6               |   122.87
    4 U4               |   9 ctr              |   1 U1               |   120.17
    4 U4               |   3 U3               |   2 U2               |    68.28
    2 U2               |   4 U4               |   5 U5               |   121.85
    2 U2               |   4 U4               |   6 U6               |    85.26
    4 U4               |   9 ctr              |   2 U2               |   112.35
    3 U3               |   4 U4               |   5 U5               |    70.53
    4 U4               |   3 U3               |   6 U6               |    70.53
    3 U3               |   4 U4               |   9 ctr              |    90.00
    4 U4               |   5 U5               |   6 U6               |    70.53
    5 U5               |   4 U4               |   9 ctr              |   144.73
    6 U6               |   4 U4               |   9 ctr              |   135.00
    5 U5               |   4 U4               |   3 U3               |    70.53
    5 U5               |   6 U6               |   3 U3               |    70.53
    3 U3               |   5 U5               |   7 U7               |    85.26
    3 U3               |   5 U5               |   8 U8               |   122.87
    4 U4               |   5 U5               |   6 U6               |    70.53
    4 U4               |   5 U5               |   7 U7               |   121.85
    4 U4               |   5 U5               |   8 U8               |   104.88
    5 U5               |   6 U6               |   7 U7               |    68.28
    6 U6               |   5 U5               |   8 U8               |    68.28
    5 U5               |   8 U8               |   7 U7               |    68.28
    6 U6               |   3 U3               |   4 U4               |    70.53
    3 U3               |   6 U6               |   5 U5               |    70.53
    3 U3               |   6 U6               |   7 U7               |   104.88
    3 U3               |   6 U6               |   8 U8               |   121.85
    6 U6               |   5 U5               |   4 U4               |    70.53
    4 U4               |   6 U6               |   7 U7               |   122.87
    4 U4               |   6 U6               |   8 U8               |    85.26
    5 U5               |   6 U6               |   7 U7               |    68.28
    6 U6               |   5 U5               |   8 U8               |    68.28
    6 U6               |   7 U7               |   8 U8               |    68.28
    7 U7               |   6 U6               |   5 U5               |    68.28
    7 U7               |   8 U8               |   5 U5               |    68.28
    6 U6               |   7 U7               |   8 U8               |    68.28
    8 U8               |   5 U5               |   6 U6               |    68.28
    5 U5               |   8 U8               |   7 U7               |    68.28
    8 U8               |   7 U7               |   6 U6               |    68.28
    1 U1               |   9 ctr              |   2 U2               |    78.98
    1 U1               |   9 ctr              |   4 U4               |   120.17
    2 U2               |   9 ctr              |   4 U4               |   112.35
 ------------------------------------------------------------------------------
                            number of included internuclear angles:         66
 ==============================================================================




  !!!!!!!!!  geom_3d NEEDS TESTING !!!!!!!!!! 


                         Geometry "geometry" -> "        "
                         ---------------------------------

 Output coordinates in angstroms (scale by  1.889725989 to convert to a.u.)

  No.       Tag          Charge          X              Y              Z
 ---- ---------------- ---------- -------------- -------------- --------------
    1 U1                  92.0000     0.00000000     0.00000000    17.79019335
    2 U2                  92.0000     1.72000000     2.43250000    17.79019335
    3 U3                  92.0000     0.00000000     2.43250000    15.72987870
    4 U4                  92.0000     1.72000000     0.00000000    15.72987870
    5 U5                  92.0000     0.00000000     0.00000000    13.29750000
    6 U6                  92.0000     1.72000000     2.43250000    13.29750000
    7 U7                  92.0000     0.00000000     2.43250000    11.23718535
    8 U8                  92.0000     1.72000000     0.00000000    11.23718535
    9 H1                   1.0000     0.00000000     0.00000000    19.04042430

      Lattice Parameters 
      ------------------ 

      lattice vectors in angstroms (scale by  1.889725989 to convert to a.u.)

      a1=<   3.440   0.000   0.000 >
      a2=<   0.000   4.865   0.000 >
      a3=<   0.000   0.000  26.595 >
      a=       3.440 b=      4.865 c=      26.595
      alpha=  90.000 beta=  90.000 gamma=  90.000
      omega=   445.1

      reciprocal lattice vectors in a.u.

      b1=<   0.967   0.000  -0.000 >
      b2=<  -0.000   0.683  -0.000 >
      b3=<   0.000   0.000   0.125 >

      Atomic Mass 
      ----------- 

      U1               238.050800
      U2               238.050800
      U3               238.050800
      U4               238.050800
      U5               238.050800
      U6               238.050800
      U7               238.050800
      U8               238.050800
      H1                 1.007825


 ==============================================================================
                                internuclear distances
 ------------------------------------------------------------------------------
       center one      |      center two      | atomic units |  angstroms
 ------------------------------------------------------------------------------
    2 U2               |   1 U1               |     5.62982  |     2.97917
    3 U3               |   1 U1               |     6.02403  |     3.18778
    3 U3               |   2 U2               |     5.07183  |     2.68390
    4 U4               |   1 U1               |     5.07183  |     2.68390
    4 U4               |   2 U2               |     6.02403  |     3.18778
    4 U4               |   3 U3               |     5.62982  |     2.97917
    5 U5               |   3 U3               |     6.50064  |     3.43999
    5 U5               |   4 U4               |     5.62963  |     2.97907
    6 U6               |   3 U3               |     5.62963  |     2.97907
    6 U6               |   4 U4               |     6.50064  |     3.43999
    6 U6               |   5 U5               |     5.62982  |     2.97917
    7 U7               |   5 U5               |     6.02403  |     3.18778
    7 U7               |   6 U6               |     5.07183  |     2.68390
    8 U8               |   5 U5               |     5.07183  |     2.68390
    8 U8               |   6 U6               |     6.02403  |     3.18778
    8 U8               |   7 U7               |     5.62982  |     2.97917
    9 H1               |   1 U1               |     2.36259  |     1.25023
 ------------------------------------------------------------------------------
                         number of included internuclear distances:         17
 ==============================================================================



 ==============================================================================
                                 internuclear angles
 ------------------------------------------------------------------------------
        center 1       |       center 2       |       center 3       |  degrees
 ------------------------------------------------------------------------------
    1 U1               |   2 U2               |   3 U3               |    68.28
    2 U2               |   1 U1               |   4 U4               |    68.28
    2 U2               |   1 U1               |   9 H1               |    90.00
    1 U1               |   4 U4               |   3 U3               |    68.28
    3 U3               |   1 U1               |   9 H1               |   130.26
    4 U4               |   1 U1               |   9 H1               |   140.14
    1 U1               |   2 U2               |   3 U3               |    68.28
    2 U2               |   1 U1               |   4 U4               |    68.28
    2 U2               |   3 U3               |   4 U4               |    68.28
    3 U3               |   2 U2               |   1 U1               |    68.28
    3 U3               |   4 U4               |   1 U1               |    68.28
    1 U1               |   3 U3               |   5 U5               |    85.26
    1 U1               |   3 U3               |   6 U6               |   121.85
    2 U2               |   3 U3               |   4 U4               |    68.28
    2 U2               |   3 U3               |   5 U5               |   122.87
    2 U2               |   3 U3               |   6 U6               |   104.88
    3 U3               |   4 U4               |   5 U5               |    70.53
    4 U4               |   3 U3               |   6 U6               |    70.53
    3 U3               |   6 U6               |   5 U5               |    70.53
    4 U4               |   1 U1               |   2 U2               |    68.28
    1 U1               |   4 U4               |   3 U3               |    68.28
    1 U1               |   4 U4               |   5 U5               |   104.88
    1 U1               |   4 U4               |   6 U6               |   122.87
    4 U4               |   3 U3               |   2 U2               |    68.28
    2 U2               |   4 U4               |   5 U5               |   121.85
    2 U2               |   4 U4               |   6 U6               |    85.26
    3 U3               |   4 U4               |   5 U5               |    70.53
    4 U4               |   3 U3               |   6 U6               |    70.53
    4 U4               |   5 U5               |   6 U6               |    70.53
    5 U5               |   4 U4               |   3 U3               |    70.53
    5 U5               |   6 U6               |   3 U3               |    70.53
    3 U3               |   5 U5               |   7 U7               |    85.26
    3 U3               |   5 U5               |   8 U8               |   122.87
    4 U4               |   5 U5               |   6 U6               |    70.53
    4 U4               |   5 U5               |   7 U7               |   121.85
    4 U4               |   5 U5               |   8 U8               |   104.88
    5 U5               |   6 U6               |   7 U7               |    68.28
    6 U6               |   5 U5               |   8 U8               |    68.28
    5 U5               |   8 U8               |   7 U7               |    68.28
    6 U6               |   3 U3               |   4 U4               |    70.53
    3 U3               |   6 U6               |   5 U5               |    70.53
    3 U3               |   6 U6               |   7 U7               |   104.88
    3 U3               |   6 U6               |   8 U8               |   121.85
    6 U6               |   5 U5               |   4 U4               |    70.53
    4 U4               |   6 U6               |   7 U7               |   122.87
    4 U4               |   6 U6               |   8 U8               |    85.26
    5 U5               |   6 U6               |   7 U7               |    68.28
    6 U6               |   5 U5               |   8 U8               |    68.28
    6 U6               |   7 U7               |   8 U8               |    68.28
    7 U7               |   6 U6               |   5 U5               |    68.28
    7 U7               |   8 U8               |   5 U5               |    68.28
    6 U6               |   7 U7               |   8 U8               |    68.28
    8 U8               |   5 U5               |   6 U6               |    68.28
    5 U5               |   8 U8               |   7 U7               |    68.28
    8 U8               |   7 U7               |   6 U6               |    68.28
 ------------------------------------------------------------------------------
                            number of included internuclear angles:         55
 ==============================================================================



          **********************************************************
          *                                                        *
          *                   NWPW BAND Calculation                *
          *                                                        *
          *  [(bundled Grassman/Stiefel manifold implementation)]  *
          *                                                        *
          *         [ NorthWest Chemistry implementation ]         *
          *                                                        *
          *                version #1.10   01/31/03                *
          *                                                        *
          *  A pseudopotential plane-wave band structure program   *
          *  with Brillouin zone sampling for optimizing crystals, *
          *  slabs, and polymers.  Developed by Eric J. Bylaska    *
          *  , Edoardo Apra, and Patrick Nichols.                  *
          *                                                        *
          **********************************************************
     >>>  JOB STARTED       AT Sat Mar  9 22:50:40 2013  <<<
          ================ input data ========================
  library name resolved from: environment
  NWCHEM_NWPW_LIBRARY set to: </home/davis68/nwchem/nwchem-6.1/src/nwpw/libraryps/>
 Generating 1d pseudopotential for U   

 Generated formatted_filename: ./perm/U.cpp
 - Spline fitted, nray=27864 -
  library name resolved from: environment
  NWCHEM_NWPW_LIBRARY set to: </home/davis68/nwchem/nwchem-6.1/src/nwpw/libraryps/>
 Generating 1d pseudopotential for H   

 Generated formatted_filename: ./perm/H.cpp
 - Spline fitted, nray=27864 -
 random planewave guess, initial psi:U8H-110-ctr.movecs                                
 -   spin, nalpha, nbeta:                    2                   57                   56

 input psi filename:./perm/U8H-110-ctr.movecs
Warning - Orthogonalization performed, spin,zone: 1   1
        - error(before)=  0.661369E+01 (  0.503863E+02)
        - error(after)=   0.710543E-14 (  0.570000E+02)
Warning - Orthogonalization performed, spin,zone: 2   1
        - error(before)=  0.649969E+01 (  0.495003E+02)
        - error(after)=   0.142109E-13 (  0.560000E+02)
Warning - Orthogonalization performed, spin,zone: 1   2
        - error(before)=  0.661535E+01 (  0.503847E+02)
        - error(after)=   0.000000E+00 (  0.570000E+02)
Warning - Orthogonalization performed, spin,zone: 2   2
        - error(before)=  0.649956E+01 (  0.495004E+02)
        - error(after)=   0.142109E-13 (  0.560000E+02)
Warning - Orthogonalization performed, spin,zone: 1   3
        - error(before)=  0.661642E+01 (  0.503836E+02)
        - error(after)=   0.710543E-14 (  0.570000E+02)
Warning - Orthogonalization performed, spin,zone: 2   3
        - error(before)=  0.649949E+01 (  0.495005E+02)
        - error(after)=   0.000000E+00 (  0.560000E+02)
Warning - Orthogonalization performed, spin,zone: 1   4
        - error(before)=  0.661371E+01 (  0.503863E+02)
        - error(after)=   0.710543E-14 (  0.570000E+02)
Warning - Orthogonalization performed, spin,zone: 2   4
        - error(before)=  0.649898E+01 (  0.495010E+02)
        - error(after)=   0.000000E+00 (  0.560000E+02)
Warning - Orthogonalization performed, spin,zone: 1   5
        - error(before)=  0.661421E+01 (  0.503858E+02)
        - error(after)=   0.710543E-14 (  0.570000E+02)
Warning - Orthogonalization performed, spin,zone: 2   5
        - error(before)=  0.649852E+01 (  0.495015E+02)
        - error(after)=   0.000000E+00 (  0.560000E+02)
Warning - Orthogonalization performed, spin,zone: 1   6
        - error(before)=  0.661575E+01 (  0.503842E+02)
        - error(after)=   0.710543E-14 (  0.570000E+02)
Warning - Orthogonalization performed, spin,zone: 2   6
        - error(before)=  0.650074E+01 (  0.494993E+02)
        - error(after)=   0.710543E-14 (  0.560000E+02)
Warning - Orthogonalization performed, spin,zone: 1   7
        - error(before)=  0.661617E+01 (  0.503838E+02)
        - error(after)=   0.000000E+00 (  0.570000E+02)
Warning - Orthogonalization performed, spin,zone: 2   7
        - error(before)=  0.649882E+01 (  0.495012E+02)
        - error(after)=   0.710543E-14 (  0.560000E+02)
Warning - Orthogonalization performed, spin,zone: 1   8
        - error(before)=  0.661305E+01 (  0.503870E+02)
        - error(after)=   0.000000E+00 (  0.570000E+02)
Warning - Orthogonalization performed, spin,zone: 2   8
        - error(before)=  0.649741E+01 (  0.495026E+02)
        - error(after)=   0.710543E-14 (  0.560000E+02)

 number of processors used:             288
 processor grid           :  36 x   1 x   8
 parallel mapping         :     2d  hilbert

 options:
      boundary conditions  = periodic    (version3)
      electron spin        = unrestricted
      exchange-correlation = PBE96 (White and Bird) parameterization

 elements involved in the cluster:
      1: U     core charge:14.0  lmax=3
             comment    : Parameterized (J.Chem. Phys. vol 128, 124507 (2008)) Troullier-Martins psp
             pseudpotential type            :   0
             highest angular component      :   3
             local potential used           :   0