----------------------------------------
Begin Torque Prologue (Wed Mar 13 05:15:33 2013)
Job ID:           385622.taubm1.campuscluster.illinois.edu
Username:         davis68
Group:            npre_rizwan
Job Name:         U8O2-110-crossctr
Limits:           ncpus=1,neednodes=24:ppn=12,nodes=24:ppn=12,walltime=08:00:00
Job Queue:        cse
Account:          NPRE
Nodes:            taub228 taub240 taub248 taub253 taub255 taub257 taub258 taub265 taub267 taub268 taub272 taub274 taub276 taub278 taub279 taub284 taub286 taub479 taub492 taub493 taub494 taub496 taub497 taub498
End Torque Prologue
----------------------------------------
 argument  1 = ./U8O2-110-crossctr.nw



============================== echo of input deck ==============================
title "Gamma-uranium (100) adsorption"
echo

permanent_dir ./perm
scratch_dir   ./scratch

start U8O2-110-crossctr

memory 2500 mb

nwpw
  # Real-space discretization
  simulation_cell
    ngrid 36 48 360 #64 72 360 #36 48 320
  end

  # Spin multiplicity---quenched to 1 in the solid state
  mult 3

  # Band, k-point sampling, and parallelism
  monkhorst-pack 4 4 1
  np_dimensions 8 12 8
  mapping 2

  # Periodicity considerations
  ewald_rcut 3.0
  ewald_ncut 8

  # Simulation parameters
  #restricted    # DFT||ODFT||RESTRICTED||UNRESTRICTED
  xc pbe96
  cutoff 90.0
  loop 10 300
  tolerances 1.0e-6 1.0e-6
end
set nwpw:minimizer      2
set nwpw:lcao_skip      .true.
set nwpw:kbpp_ray       .true.
set nwpw:kbpp_filter    .true.

## Optimization ##
driver
  #clear                # Deletes all restart data
  loose               # Specify loose, default, or tight convergence
  xyz U8O2     # Output XYZ file of geometry at each stage
  maxiter 40
end
set driver:linopt 0
set nwpw:cif_filename U8O2.opt
set nwpw:psi_nolattice .true.

#       (110) gamma-uranium surface with surface displacements:	15.30%	and X displacement of	-0.500	Å
geometry	center	noautosym	noautoz	print
	system	crystal
	lat_a	3.440
	lat_b	4.865
	lat_c	26.595
	alpha	90.0d0
	beta	90.0d0
	gamma	90.0d0
	end
	U1	0.00000	0.00000	0.66893
	U2	0.50000	0.50000	0.66893
	U3	0.00000	0.50000	0.59146
	U4	0.50000	0.00000	0.59146
	U5	0.00000	0.00000	0.50000
	U6	0.50000	0.50000	0.50000
	U7	0.00000	0.50000	0.42253
	U8	0.50000	0.00000	0.42253
	O1	0.62436	0.91206	0.65013
	O2	0.37564	0.08794	0.65013
end
#task band energy

#nwpw
#  simulation_cell
#    ngrid 64 92 540
#  end
#end

#       (110) gamma-uranium surface with surface displacements:	15.30%	and X displacement of	2.500	Å
#cross-brg
geometry	center	noautosym	noautoz	print
	system	crystal
	lat_a	3.440
	lat_b	4.865
	lat_c	26.595
	alpha	90.0d0
	beta	90.0d0
	gamma	90.0d0
	end
	U1	0.00000	0.00000	0.66893
	U2	0.50000	0.50000	0.66893
	U3	0.00000	0.50000	0.59146
	U4	0.50000	0.00000	0.59146
	U5	0.00000	0.00000	0.50000
	U6	0.50000	0.50000	0.50000
	U7	0.00000	0.50000	0.42253
	U8	0.50000	0.00000	0.42253
	O1	0.37436	0.16206	0.76294
	O2	0.12564	0.33794	0.76294
end
#task band energy

#       (110) gamma-uranium surface with surface displacements:	15.30%	and X displacement of	2.500	Å
geometry	center	noautosym	noautoz	print
	system	crystal
	lat_a	3.440
	lat_b	4.865
	lat_c	26.595
	alpha	90.0d0
	beta	90.0d0
	gamma	90.0d0
	end
	U1	0.00000	0.00000	0.66893
	U2	0.50000	0.50000	0.66893
	U3	0.00000	0.50000	0.59146
	U4	0.50000	0.00000	0.59146
	U5	0.00000	0.00000	0.50000
	U6	0.50000	0.50000	0.50000
	U7	0.00000	0.50000	0.42253
	U8	0.50000	0.00000	0.42253
	O1	0.62436	0.91206	0.76294
	O2	0.37564	0.08794	0.76294
end
task band energy

# A.M.D.G.

================================================================================


                                         
                                         


             Northwest Computational Chemistry Package (NWChem) 6.1.1
             --------------------------------------------------------


                    Environmental Molecular Sciences Laboratory
                       Pacific Northwest National Laboratory
                                Richland, WA 99352

                              Copyright (c) 1994-2012
                       Pacific Northwest National Laboratory
                            Battelle Memorial Institute

             NWChem is an open-source computational chemistry package
                        distributed under the terms of the
                      Educational Community License (ECL) 2.0
             A copy of the license is included with this distribution
                              in the LICENSE.TXT file

                                  ACKNOWLEDGMENT
                                  --------------

            This software and its documentation were developed at the
            EMSL at Pacific Northwest National Laboratory, a multiprogram
            national laboratory, operated for the U.S. Department of Energy
            by Battelle under Contract Number DE-AC05-76RL01830. Support
            for this work was provided by the Department of Energy Office
            of Biological and Environmental Research, Office of Basic
            Energy Sciences, and the Office of Advanced Scientific Computing.


           Job information
           ---------------

    hostname        = taub498
    program         = /home/davis68/bin/nwchem-dev
    date            = Wed Mar 13 05:15:53 2013

    compiled        = Wed_Oct_03_09:41:00_2012
    source          = /home/davis68/nwchem/nwchem-src-2012-Aug-27/
    nwchem branch   = Development
    nwchem revision = 22805
    ga revision     = 10079
    input           = ./U8O2-110-crossctr.nw
    prefix          = U8O2-110-crossctr.
    data base       = ./perm/U8O2-110-crossctr.db
    status          = startup
    nproc           =      288
    time left       =     -1s



           Memory information
           ------------------

    heap     =   81920001 doubles =    625.0 Mbytes
    stack    =   81920001 doubles =    625.0 Mbytes
    global   =  163840000 doubles =   1250.0 Mbytes (distinct from heap & stack)
    total    =  327680002 doubles =   2500.0 Mbytes
    verify   = yes
    hardfail = no 


           Directory information
           ---------------------

  0 permanent = ./perm
  0 scratch   = ./scratch




                                NWChem Input Module
                                -------------------


                          Gamma-uranium (100) adsorption
                          ------------------------------

  !!!!!!!!!  geom_3d NEEDS TESTING !!!!!!!!!! 


                             Geometry "geometry" -> ""
                             -------------------------

 Output coordinates in angstroms (scale by  1.889725989 to convert to a.u.)

  No.       Tag          Charge          X              Y              Z
 ---- ---------------- ---------- -------------- -------------- --------------
    1 U1                  92.0000     0.00000000     0.00000000    17.79019335
    2 U2                  92.0000     1.72000000     2.43250000    17.79019335
    3 U3                  92.0000     0.00000000     2.43250000    15.72987870
    4 U4                  92.0000     1.72000000     0.00000000    15.72987870
    5 U5                  92.0000     0.00000000     0.00000000    13.29750000
    6 U6                  92.0000     1.72000000     2.43250000    13.29750000
    7 U7                  92.0000     0.00000000     2.43250000    11.23718535
    8 U8                  92.0000     1.72000000     0.00000000    11.23718535
    9 O1                   8.0000     2.14779840     4.43717190    17.29020735
   10 O2                   8.0000     1.29220160     0.42782810    17.29020735

      Lattice Parameters 
      ------------------ 

      lattice vectors in angstroms (scale by  1.889725989 to convert to a.u.)

      a1=<   3.440   0.000   0.000 >
      a2=<   0.000   4.865   0.000 >
      a3=<   0.000   0.000  26.595 >
      a=       3.440 b=      4.865 c=      26.595
      alpha=  90.000 beta=  90.000 gamma=  90.000
      omega=   445.1

      reciprocal lattice vectors in a.u.

      b1=<   0.967   0.000  -0.000 >
      b2=<  -0.000   0.683  -0.000 >
      b3=<   0.000   0.000   0.125 >

      Atomic Mass 
      ----------- 

      U1               238.050800
      U2               238.050800
      U3               238.050800
      U4               238.050800
      U5               238.050800
      U6               238.050800
      U7               238.050800
      U8               238.050800
      O1                15.994910
      O2                15.994910


 ==============================================================================
                                internuclear distances
 ------------------------------------------------------------------------------
       center one      |      center two      | atomic units |  angstroms
 ------------------------------------------------------------------------------
    2 U2               |   1 U1               |     5.62982  |     2.97917
    3 U3               |   1 U1               |     6.02403  |     3.18778
    3 U3               |   2 U2               |     5.07183  |     2.68390
    4 U4               |   1 U1               |     5.07183  |     2.68390
    4 U4               |   2 U2               |     6.02403  |     3.18778
    4 U4               |   3 U3               |     5.62982  |     2.97917
    5 U5               |   3 U3               |     6.50064  |     3.43999
    5 U5               |   4 U4               |     5.62963  |     2.97907
    6 U6               |   3 U3               |     5.62963  |     2.97907
    6 U6               |   4 U4               |     6.50064  |     3.43999
    6 U6               |   5 U5               |     5.62982  |     2.97917
    7 U7               |   5 U5               |     6.02403  |     3.18778
    7 U7               |   6 U6               |     5.07183  |     2.68390
    8 U8               |   5 U5               |     5.07183  |     2.68390
    8 U8               |   6 U6               |     6.02403  |     3.18778
    8 U8               |   7 U7               |     5.62982  |     2.97917
    9 O1               |   2 U2               |     3.98715  |     2.10991
   10 O2               |   1 U1               |     2.74030  |     1.45011
   10 O2               |   2 U2               |     3.98715  |     2.10991
   10 O2               |   3 U3               |     5.38592  |     2.85011
   10 O2               |   4 U4               |     3.16250  |     1.67352
 ------------------------------------------------------------------------------
                         number of included internuclear distances:         21
 ==============================================================================



 ==============================================================================
                                 internuclear angles
 ------------------------------------------------------------------------------
        center 1       |       center 2       |       center 3       |  degrees
 ------------------------------------------------------------------------------
    1 U1               |   2 U2               |   3 U3               |    68.28
    2 U2               |   1 U1               |   4 U4               |    68.28
    1 U1               |  10 O2               |   2 U2               |   112.29
    1 U1               |   4 U4               |   3 U3               |    68.28
    1 U1               |  10 O2               |   3 U3               |    89.56
    1 U1               |  10 O2               |   4 U4               |   118.28
    1 U1               |   2 U2               |   3 U3               |    68.28
    2 U2               |   1 U1               |   4 U4               |    68.28
    1 U1               |   2 U2               |   9 O1               |   153.23
    2 U2               |  10 O2               |   1 U1               |   112.29
    2 U2               |   3 U3               |   4 U4               |    68.28
    3 U3               |   2 U2               |   9 O1               |    87.02
    3 U3               |   2 U2               |  10 O2               |    71.83
    4 U4               |   2 U2               |   9 O1               |   124.88
    2 U2               |  10 O2               |   4 U4               |   114.33
    9 O1               |   2 U2               |  10 O2               |   152.58
    3 U3               |   2 U2               |   1 U1               |    68.28
    3 U3               |   4 U4               |   1 U1               |    68.28
    1 U1               |   3 U3               |   5 U5               |    85.26
    1 U1               |   3 U3               |   6 U6               |   121.85
    3 U3               |  10 O2               |   1 U1               |    89.56
    2 U2               |   3 U3               |   4 U4               |    68.28
    2 U2               |   3 U3               |   5 U5               |   122.87
    2 U2               |   3 U3               |   6 U6               |   104.88
    3 U3               |   2 U2               |  10 O2               |    71.83
    3 U3               |   4 U4               |   5 U5               |    70.53
    4 U4               |   3 U3               |   6 U6               |    70.53
    3 U3               |  10 O2               |   4 U4               |    77.60
    3 U3               |   6 U6               |   5 U5               |    70.53
    5 U5               |   3 U3               |  10 O2               |    83.67
    6 U6               |   3 U3               |  10 O2               |   100.67
    4 U4               |   1 U1               |   2 U2               |    68.28
    1 U1               |   4 U4               |   3 U3               |    68.28
    1 U1               |   4 U4               |   5 U5               |   104.88
    1 U1               |   4 U4               |   6 U6               |   122.87
    4 U4               |  10 O2               |   1 U1               |   118.28
    4 U4               |   3 U3               |   2 U2               |    68.28
    2 U2               |   4 U4               |   5 U5               |   121.85
    2 U2               |   4 U4               |   6 U6               |    85.26
    4 U4               |  10 O2               |   2 U2               |   114.33
    3 U3               |   4 U4               |   5 U5               |    70.53
    4 U4               |   3 U3               |   6 U6               |    70.53
    4 U4               |  10 O2               |   3 U3               |    77.60
    4 U4               |   5 U5               |   6 U6               |    70.53
    5 U5               |   4 U4               |  10 O2               |   127.86
    6 U6               |   4 U4               |  10 O2               |   118.59
    5 U5               |   4 U4               |   3 U3               |    70.53
    5 U5               |   6 U6               |   3 U3               |    70.53
    3 U3               |   5 U5               |   7 U7               |    85.26
    3 U3               |   5 U5               |   8 U8               |   122.87
    4 U4               |   5 U5               |   6 U6               |    70.53
    4 U4               |   5 U5               |   7 U7               |   121.85
    4 U4               |   5 U5               |   8 U8               |   104.88
    5 U5               |   6 U6               |   7 U7               |    68.28
    6 U6               |   5 U5               |   8 U8               |    68.28
    5 U5               |   8 U8               |   7 U7               |    68.28
    6 U6               |   3 U3               |   4 U4               |    70.53
    3 U3               |   6 U6               |   5 U5               |    70.53
    3 U3               |   6 U6               |   7 U7               |   104.88
    3 U3               |   6 U6               |   8 U8               |   121.85
    6 U6               |   5 U5               |   4 U4               |    70.53
    4 U4               |   6 U6               |   7 U7               |   122.87
    4 U4               |   6 U6               |   8 U8               |    85.26
    5 U5               |   6 U6               |   7 U7               |    68.28
    6 U6               |   5 U5               |   8 U8               |    68.28
    6 U6               |   7 U7               |   8 U8               |    68.28
    7 U7               |   6 U6               |   5 U5               |    68.28
    7 U7               |   8 U8               |   5 U5               |    68.28
    6 U6               |   7 U7               |   8 U8               |    68.28
    8 U8               |   5 U5               |   6 U6               |    68.28
    5 U5               |   8 U8               |   7 U7               |    68.28
    8 U8               |   7 U7               |   6 U6               |    68.28
    1 U1               |  10 O2               |   2 U2               |   112.29
    1 U1               |  10 O2               |   3 U3               |    89.56
    1 U1               |  10 O2               |   4 U4               |   118.28
   10 O2               |   2 U2               |   3 U3               |    71.83
    2 U2               |  10 O2               |   4 U4               |   114.33
    3 U3               |  10 O2               |   4 U4               |    77.60
 ------------------------------------------------------------------------------
                            number of included internuclear angles:         78
 ==============================================================================




  !!!!!!!!!  geom_3d NEEDS TESTING !!!!!!!!!! 


                         Geometry "geometry" -> "        "
                         ---------------------------------

 Output coordinates in angstroms (scale by  1.889725989 to convert to a.u.)

  No.       Tag          Charge          X              Y              Z
 ---- ---------------- ---------- -------------- -------------- --------------
    1 U1                  92.0000     0.00000000     0.00000000    17.79019335
    2 U2                  92.0000     1.72000000     2.43250000    17.79019335
    3 U3                  92.0000     0.00000000     2.43250000    15.72987870
    4 U4                  92.0000     1.72000000     0.00000000    15.72987870
    5 U5                  92.0000     0.00000000     0.00000000    13.29750000
    6 U6                  92.0000     1.72000000     2.43250000    13.29750000
    7 U7                  92.0000     0.00000000     2.43250000    11.23718535
    8 U8                  92.0000     1.72000000     0.00000000    11.23718535
    9 O1                   8.0000     1.28779840     0.78842190    20.29038930
   10 O2                   8.0000     0.43220160     1.64407810    20.29038930

      Lattice Parameters 
      ------------------ 

      lattice vectors in angstroms (scale by  1.889725989 to convert to a.u.)

      a1=<   3.440   0.000   0.000 >
      a2=<   0.000   4.865   0.000 >
      a3=<   0.000   0.000  26.595 >
      a=       3.440 b=      4.865 c=      26.595
      alpha=  90.000 beta=  90.000 gamma=  90.000
      omega=   445.1

      reciprocal lattice vectors in a.u.

      b1=<   0.967   0.000  -0.000 >
      b2=<  -0.000   0.683  -0.000 >
      b3=<   0.000   0.000   0.125 >

      Atomic Mass 
      ----------- 

      U1               238.050800
      U2               238.050800
      U3               238.050800
      U4               238.050800
      U5               238.050800
      U6               238.050800
      U7               238.050800
      U8               238.050800
      O1                15.994910
      O2                15.994910


 ==============================================================================
                                internuclear distances
 ------------------------------------------------------------------------------
       center one      |      center two      | atomic units |  angstroms
 ------------------------------------------------------------------------------
    2 U2               |   1 U1               |     5.62982  |     2.97917
    3 U3               |   1 U1               |     6.02403  |     3.18778
    3 U3               |   2 U2               |     5.07183  |     2.68390
    4 U4               |   1 U1               |     5.07183  |     2.68390
    4 U4               |   2 U2               |     6.02403  |     3.18778
    4 U4               |   3 U3               |     5.62982  |     2.97917
    5 U5               |   3 U3               |     6.50064  |     3.43999
    5 U5               |   4 U4               |     5.62963  |     2.97907
    6 U6               |   3 U3               |     5.62963  |     2.97907
    6 U6               |   4 U4               |     6.50064  |     3.43999
    6 U6               |   5 U5               |     5.62982  |     2.97917
    7 U7               |   5 U5               |     6.02403  |     3.18778
    7 U7               |   6 U6               |     5.07183  |     2.68390
    8 U8               |   5 U5               |     5.07183  |     2.68390
    8 U8               |   6 U6               |     6.02403  |     3.18778
    8 U8               |   7 U7               |     5.62982  |     2.97917
   10 O2               |   9 O1               |     2.28664  |     1.21004
 ------------------------------------------------------------------------------
                         number of included internuclear distances:         17
 ==============================================================================



 ==============================================================================
                                 internuclear angles
 ------------------------------------------------------------------------------
        center 1       |       center 2       |       center 3       |  degrees
 ------------------------------------------------------------------------------
    1 U1               |   2 U2               |   3 U3               |    68.28
    2 U2               |   1 U1               |   4 U4               |    68.28
    1 U1               |   4 U4               |   3 U3               |    68.28
    1 U1               |   2 U2               |   3 U3               |    68.28
    2 U2               |   1 U1               |   4 U4               |    68.28
    2 U2               |   3 U3               |   4 U4               |    68.28
    3 U3               |   2 U2               |   1 U1               |    68.28
    3 U3               |   4 U4               |   1 U1               |    68.28
    1 U1               |   3 U3               |   5 U5               |    85.26
    1 U1               |   3 U3               |   6 U6               |   121.85
    2 U2               |   3 U3               |   4 U4               |    68.28
    2 U2               |   3 U3               |   5 U5               |   122.87
    2 U2               |   3 U3               |   6 U6               |   104.88
    3 U3               |   4 U4               |   5 U5               |    70.53
    4 U4               |   3 U3               |   6 U6               |    70.53
    3 U3               |   6 U6               |   5 U5               |    70.53
    4 U4               |   1 U1               |   2 U2               |    68.28
    1 U1               |   4 U4               |   3 U3               |    68.28
    1 U1               |   4 U4               |   5 U5               |   104.88
    1 U1               |   4 U4               |   6 U6               |   122.87
    4 U4               |   3 U3               |   2 U2               |    68.28
    2 U2               |   4 U4               |   5 U5               |   121.85
    2 U2               |   4 U4               |   6 U6               |    85.26
    3 U3               |   4 U4               |   5 U5               |    70.53
    4 U4               |   3 U3               |   6 U6               |    70.53
    4 U4               |   5 U5               |   6 U6               |    70.53
    5 U5               |   4 U4               |   3 U3               |    70.53
    5 U5               |   6 U6               |   3 U3               |    70.53
    3 U3               |   5 U5               |   7 U7               |    85.26
    3 U3               |   5 U5               |   8 U8               |   122.87
    4 U4               |   5 U5               |   6 U6               |    70.53
    4 U4               |   5 U5               |   7 U7               |   121.85
    4 U4               |   5 U5               |   8 U8               |   104.88
    5 U5               |   6 U6               |   7 U7               |    68.28
    6 U6               |   5 U5               |   8 U8               |    68.28
    5 U5               |   8 U8               |   7 U7               |    68.28
    6 U6               |   3 U3               |   4 U4               |    70.53
    3 U3               |   6 U6               |   5 U5               |    70.53
    3 U3               |   6 U6               |   7 U7               |   104.88
    3 U3               |   6 U6               |   8 U8               |   121.85
    6 U6               |   5 U5               |   4 U4               |    70.53
    4 U4               |   6 U6               |   7 U7               |   122.87
    4 U4               |   6 U6               |   8 U8               |    85.26
    5 U5               |   6 U6               |   7 U7               |    68.28
    6 U6               |   5 U5               |   8 U8               |    68.28
    6 U6               |   7 U7               |   8 U8               |    68.28
    7 U7               |   6 U6               |   5 U5               |    68.28
    7 U7               |   8 U8               |   5 U5               |    68.28
    6 U6               |   7 U7               |   8 U8               |    68.28
    8 U8               |   5 U5               |   6 U6               |    68.28
    5 U5               |   8 U8               |   7 U7               |    68.28
    8 U8               |   7 U7               |   6 U6               |    68.28
 ------------------------------------------------------------------------------
                            number of included internuclear angles:         52
 ==============================================================================




  !!!!!!!!!  geom_3d NEEDS TESTING !!!!!!!!!! 


                         Geometry "geometry" -> "        "
                         ---------------------------------

 Output coordinates in angstroms (scale by  1.889725989 to convert to a.u.)

  No.       Tag          Charge          X              Y              Z
 ---- ---------------- ---------- -------------- -------------- --------------
    1 U1                  92.0000     0.00000000     0.00000000    17.79019335
    2 U2                  92.0000     1.72000000     2.43250000    17.79019335
    3 U3                  92.0000     0.00000000     2.43250000    15.72987870
    4 U4                  92.0000     1.72000000     0.00000000    15.72987870
    5 U5                  92.0000     0.00000000     0.00000000    13.29750000
    6 U6                  92.0000     1.72000000     2.43250000    13.29750000
    7 U7                  92.0000     0.00000000     2.43250000    11.23718535
    8 U8                  92.0000     1.72000000     0.00000000    11.23718535
    9 O1                   8.0000     2.14779840     4.43717190    20.29038930
   10 O2                   8.0000     1.29220160     0.42782810    20.29038930

      Lattice Parameters 
      ------------------ 

      lattice vectors in angstroms (scale by  1.889725989 to convert to a.u.)

      a1=<   3.440   0.000   0.000 >
      a2=<   0.000   4.865   0.000 >
      a3=<   0.000   0.000  26.595 >
      a=       3.440 b=      4.865 c=      26.595
      alpha=  90.000 beta=  90.000 gamma=  90.000
      omega=   445.1

      reciprocal lattice vectors in a.u.

      b1=<   0.967   0.000  -0.000 >
      b2=<  -0.000   0.683  -0.000 >
      b3=<   0.000   0.000   0.125 >

      Atomic Mass 
      ----------- 

      U1               238.050800
      U2               238.050800
      U3               238.050800
      U4               238.050800
      U5               238.050800
      U6               238.050800
      U7               238.050800
      U8               238.050800
      O1                15.994910
      O2                15.994910


 ==============================================================================
                                internuclear distances
 ------------------------------------------------------------------------------
       center one      |      center two      | atomic units |  angstroms
 ------------------------------------------------------------------------------
    2 U2               |   1 U1               |     5.62982  |     2.97917
    3 U3               |   1 U1               |     6.02403  |     3.18778
    3 U3               |   2 U2               |     5.07183  |     2.68390
    4 U4               |   1 U1               |     5.07183  |     2.68390
    4 U4               |   2 U2               |     6.02403  |     3.18778
    4 U4               |   3 U3               |     5.62982  |     2.97917
    5 U5               |   3 U3               |     6.50064  |     3.43999
    5 U5               |   4 U4               |     5.62963  |     2.97907
    6 U6               |   3 U3               |     5.62963  |     2.97907
    6 U6               |   4 U4               |     6.50064  |     3.43999
    6 U6               |   5 U5               |     5.62982  |     2.97917
    7 U7               |   5 U5               |     6.02403  |     3.18778
    7 U7               |   6 U6               |     5.07183  |     2.68390
    8 U8               |   5 U5               |     5.07183  |     2.68390
    8 U8               |   6 U6               |     6.02403  |     3.18778
    8 U8               |   7 U7               |     5.62982  |     2.97917