----------------------------------------
Begin Torque Prologue (Sat Mar  9 22:47:25 2013)
Job ID:           384876.taubm1.campuscluster.illinois.edu
Username:         davis68
Group:            npre_rizwan
Job Name:         U8O2-110-crossctr
Limits:           ncpus=1,neednodes=24:ppn=12,nodes=24:ppn=12,walltime=08:00:00
Job Queue:        cse
Account:          NPRE
Nodes:            taub092 taub093 taub094 taub095 taub243 taub247 taub248 taub268 taub297 taub310 taub320 taub322 taub381 taub397 taub399 taub403 taub428 taub432 taub435 taub471 taub476 taub477 taub481 taub489
End Torque Prologue
----------------------------------------
 argument  1 = ./U8O2-110-crossctr.nw



============================== echo of input deck ==============================
title "Gamma-uranium (100) adsorption"
echo

permanent_dir ./perm
scratch_dir   ./scratch

restart U8O2-110-crossctr

memory 2500 mb

nwpw
  # Real-space discretization
  simulation_cell
    ngrid 36 48 360 #64 72 360 #36 48 320
  end

  # Spin multiplicity---quenched to 1 in the solid state
  mult 3

  # Band, k-point sampling, and parallelism
  monkhorst-pack 4 4 1
  np_dimensions 8 12 8
  mapping 2

  # Periodicity considerations
  ewald_rcut 3.0
  ewald_ncut 8

  # Simulation parameters
  #restricted    # DFT||ODFT||RESTRICTED||UNRESTRICTED
  xc pbe96
  cutoff 90.0
  loop 10 300
  tolerances 1.0e-6 1.0e-6
end
set nwpw:minimizer      2
set nwpw:lcao_skip      .true.
set nwpw:kbpp_ray       .true.
set nwpw:kbpp_filter    .true.

## Optimization ##
driver
  #clear                # Deletes all restart data
  loose               # Specify loose, default, or tight convergence
  xyz U8O2     # Output XYZ file of geometry at each stage
  maxiter 40
end
set driver:linopt 0
set nwpw:cif_filename U8O2.opt
set nwpw:psi_nolattice .true.

#       (110) gamma-uranium surface with surface displacements:	15.30%	and X displacement of	-0.500	Å
geometry	center	noautosym	noautoz	print
	system	crystal
	lat_a	3.440
	lat_b	4.865
	lat_c	26.595
	alpha	90.0d0
	beta	90.0d0
	gamma	90.0d0
	end
	U1	0.00000	0.00000	0.66893
	U2	0.50000	0.50000	0.66893
	U3	0.00000	0.50000	0.59146
	U4	0.50000	0.00000	0.59146
	U5	0.00000	0.00000	0.50000
	U6	0.50000	0.50000	0.50000
	U7	0.00000	0.50000	0.42253
	U8	0.50000	0.00000	0.42253
	O1	0.62436	0.91206	0.65013
	O2	0.37564	0.08794	0.65013
end
#task band energy

#nwpw
#  simulation_cell
#    ngrid 64 92 540
#  end
#end

#       (110) gamma-uranium surface with surface displacements:	15.30%	and X displacement of	2.500	Å
#cross-brg
geometry	center	noautosym	noautoz	print
	system	crystal
	lat_a	3.440
	lat_b	4.865
	lat_c	26.595
	alpha	90.0d0
	beta	90.0d0
	gamma	90.0d0
	end
	U1	0.00000	0.00000	0.66893
	U2	0.50000	0.50000	0.66893
	U3	0.00000	0.50000	0.59146
	U4	0.50000	0.00000	0.59146
	U5	0.00000	0.00000	0.50000
	U6	0.50000	0.50000	0.50000
	U7	0.00000	0.50000	0.42253
	U8	0.50000	0.00000	0.42253
	O1	0.37436	0.16206	0.76294
	O2	0.12564	0.33794	0.76294
end
task band energy

#       (110) gamma-uranium surface with surface displacements:	15.30%	and X displacement of	2.000	Å
#cross-ctr
geometry	center	noautosym	noautoz	print
	system	crystal
	lat_a	3.440
	lat_b	4.865
	lat_c	26.595
	alpha	90.0d0
	beta	90.0d0
	gamma	90.0d0
	end
	U1	0.00000	0.00000	0.66893
	U2	0.50000	0.50000	0.66893
	U3	0.00000	0.50000	0.59146
	U4	0.50000	0.00000	0.59146
	U5	0.00000	0.00000	0.50000
	U6	0.50000	0.50000	0.50000
	U7	0.00000	0.50000	0.42253
	U8	0.50000	0.00000	0.42253
	O1	0.62436	0.91206	0.74414
	O2	0.37564	0.08794	0.74414
end
task band energy

# A.M.D.G.

================================================================================


                                         
                                         


             Northwest Computational Chemistry Package (NWChem) 6.1.1
             --------------------------------------------------------


                    Environmental Molecular Sciences Laboratory
                       Pacific Northwest National Laboratory
                                Richland, WA 99352

                              Copyright (c) 1994-2012
                       Pacific Northwest National Laboratory
                            Battelle Memorial Institute

             NWChem is an open-source computational chemistry package
                        distributed under the terms of the
                      Educational Community License (ECL) 2.0
             A copy of the license is included with this distribution
                              in the LICENSE.TXT file

                                  ACKNOWLEDGMENT
                                  --------------

            This software and its documentation were developed at the
            EMSL at Pacific Northwest National rtdb_seq_open: ./perm/U8O2-110-crossctr.db does not exist, cannot open old
Laboratory, a multiprogram
            national laboratory, operated for the U.S. Department of Energy
            by Battelle under Contract Number DE-AC05-76RL01830. Support
            for this work was provided by the Department of Energy Office
            of Biological and Environmental Research, Office of Basic
            Energy Sciences, and the Office of Advanced Scientific Computing.


           Job information
           ---------------

    hostname        = taub489
    program         = /home/davis68/bin/nwchem-dev
    date            = Sat Mar  9 22:47:40 2013

    compiled        = Wed_Oct_03_09:41:00_2012
    source          = /home/davis68/nwchem/nwchem-src-2012-Aug-27/
    nwchem branch   = Development
    nwchem revision = 22805
    ga revision     = 10079
    input           = ./U8O2-110-crossctr.nw
    prefix          = U8O2-110-crossctr.
    data base       = ./perm/U8O2-110-crossctr.db
    status          = restart
    nproc           =      288
    time left       =     -1s



           Memory information
           ------------------

    heap     =   81920001 doubles =    625.0 Mbytes
    stack    =   81920001 doubles =    625.0 Mbytes
    global   =  163840000 doubles =   1250.0 Mbytes (distinct from heap & stack)
    total    =  327680002 doubles =   2500.0 Mbytes
    verify   = yes
    hardfail = no 


           Directory information
           ---------------------

  0 permanent = ./perm
  0 scratch   = ./scratch

 start: rtdb_open old failed         0
 ------------------------------------------------------------------------
 An error occured in the Runtime Database
 ------------------------------------------------------------------------
 For more information see the NWChem manual at http://www.nwchem-sw.org/index.php/NWChem_Documentation


 For further details see manual section:                                                                                                                                                                                                                                                                
1:1:start: rtdb_open old failed:: 0
(rank:1 hostname:taub489 pid:12858):ARMCI DASSERT fail. ../../ga-5-1/armci/src/common/armci.c:ARMCI_Error():208 cond:0
 start: rtdb_open old failed         0
 ------------------------------------------------------------------------
 An error occured in the Runtime Database
 ------------------------------------------------------------------------
 For more information see the NWChem manual at http://www.nwchem-sw.org/index.php/NWChem_Documentation


 For further details see manual section:                                                                                                                                                                                                                                                                
2:2:start: rtdb_open old failed:: 0
(rank:2 hostname:taub489 pid:12859):ARMCI DASSERT fail. ../../ga-5-1/armci/src/common/armci.c:ARMCI_Error():208 cond:0
 start: rtdb_open old failed         0
 ------------------------------------------------------------------------
 An error occured in the Runtime Database
 ------------------------------------------------------------------------
 For more information see the NWChem manual at http://www.nwchem-sw.org/index.php/NWChem_Documentation


 For further details see manual section:                                                                                                                                                                                                                                                                
3:3:start: rtdb_open old failed:: 0
(rank:3 hostname:taub489 pid:12860):ARMCI DASSERT fail. ../../ga-5-1/armci/src/common/armci.c:ARMCI_Error():208 cond:0
 start: rtdb_open old failed         0
 ------------------------------------------------------------------------
 An error occured in the Runtime Database
 ------------------------------------------------------------------------
 For more information see the NWChem manual at http://www.nwchem-sw.org/index.php/NWChem_Documentation


 For further details see manual section:                                                                                                                                                                                                                                                                
4:4:start: rtdb_open old failed:: 0
(rank:4 hostname:taub489 pid:12861):ARMCI DASSERT fail. ../../ga-5-1/armci/src/common/armci.c:ARMCI_Error():208 cond:0
Last System Error Message from Task 1:: No such file or directory
Last System Error Message from Task 2:: No such file or directory
Last System Error Message from Task 3:: No such file or directory
Last System Error Message from Task 4:: No such file or directory
 start: rtdb_open old failed         0
 ------------------------------------------------------------------------
 An error occured in the Runtime Database
 ------------------------------------------------------------------------
 For more information see the NWChem manual at http://www.nwchem-sw.org/index.php/NWChem_Documentation


 For further details see manual section:                                                                                                                                                                                                                                                                
 start: rtdb_open old failed         0
 ------------------------------------------------------------------------
 An error occured in the Runtime Database
 ------------------------------------------------------------------------
 For more information see the NWChem manual at http://www.nwchem-sw.org/index.php/NWChem_Documentation


 For further details see manual section:                                                                                                                                                                                                                                                                
5:5:start: rtdb_open old failed:: 0
(rank:5 hostname:taub489 pid:12862):ARMCI DASSERT fail. ../../ga-5-1/armci/src/common/armci.c:ARMCI_Error():208 cond:0
 start: rtdb_open old failed         0
 ------------------------------------------------------------------------
 An error occured in the Runtime Database
 ------------------------------------------------------------------------
 For more information see the NWChem manual at http://www.nwchem-sw.org/index.php/NWChem_Documentation


 For further details see manual section:                                                                                                                                                                                                                                                                
6:6:start: rtdb_open old failed:: 0
(rank:6 hostname:taub489 pid:12863):ARMCI DASSERT fail. ../../ga-5-1/armci/src/common/armci.c:ARMCI_Error():208 cond:0
 start: rtdb_open old failed         0
 ------------------------------------------------------------------------
 An error occured in the Runtime Database
 ------------------------------------------------------------------------
 For more information see the NWChem manual at http://www.nwchem-sw.org/index.php/NWChem_Documentation


 For further details see manual section:                                                                                                                                                                                                                                                                
7:7:start: rtdb_open old failed:: 0
(rank:7 hostname:taub489 pid:12864):ARMCI DASSERT fail. ../../ga-5-1/armci/src/common/armci.c:ARMCI_Error():208 cond:0
8:8:start: rtdb_open old failed:: 0
(rank:8 hostname:taub489 pid:12865):ARMCI DASSERT fail. ../../ga-5-1/armci/src/common/armci.c:ARMCI_Error():208 cond:0
Last System Error Message from Task 8:: No such file or directory
Last System Error Message from Task 5:: No such file or directory
Last System Error Message from Task 6:: No such file or directory
Last System Error Message from Task 7:: No such file or directory
 start: rtdb_open old failed         0
 ------------------------------------------------------------------------
 An error occured in the Runtime Database
 ------------------------------------------------------------------------
 For more information see the NWChem manual at http://www.nwchem-sw.org/index.php/NWChem_Documentation


 For further details see manual section:                                                                                                                                                                                                                                                                
9:9:start: rtdb_open old failed:: 0
(rank:9 hostname:taub489 pid:12866):ARMCI DASSERT fail. ../../ga-5-1/armci/src/common/armci.c:ARMCI_Error():208 cond:0
 start: rtdb_open old failed         0
 ------------------------------------------------------------------------
 An error occured in the Runtime Database
 ------------------------------------------------------------------------
 For more information see the NWChem manual at http://www.nwchem-sw.org/index.php/NWChem_Documentation


 For further details see manual section:                                                                                                                                                                                                                                                                
 start: rtdb_open old failed         0
 ------------------------------------------------------------------------
 An error occured in the Runtime Database
 ------------------------------------------------------------------------
 For more information see the NWChem manual at http://www.nwchem-sw.org/index.php/NWChem_Documentation


 For further details see manual section:                                                                                                                                                                                                                                                                

 ------------------------------------------------------------------------
 start: rtdb_open old failed         0
 ------------------------------------------------------------------------
 An error occured in the Runtime Database
 ------------------------------------------------------------------------
 For more information see the NWChem manual at http://www.nwchem-sw.org/index.php/NWChem_Documentation


 For further details see manual section:                                                                                                                                                                                                                                                                
0:0:start: rtdb_open old failed:: 0
Last System Error Message from Task 9:: No such file or directory
10:10:start: rtdb_open old failed:: 0
(rank:10 hostname:taub489 pid:12867):ARMCI DASSERT fail. ../../ga-5-1/armci/src/common/armci.c:ARMCI_Error():208 cond:0
11:11:start: rtdb_open old failed:: 0
(rank:11 hostname:taub489 pid:12868):ARMCI DASSERT fail. ../../ga-5-1/armci/src/common/armci.c:ARMCI_Error():208 cond:0
(rank:0 hostname:taub489 pid:12857):ARMCI DASSERT fail. ../../ga-5-1/armci/src/common/armci.c:ARMCI_Error():208 cond:0
Last System Error Message from Task 10:: No such file or directory
Last System Error Message from Task 11:: No such file or directory
Last System Error Message from Task 0:: No such file or directory
 start: rtdb_open old failed         0
 ------------------------------------------------------------------------
 An error occured in the Runtime Database
 ------------------------------------------------------------------------
 For more information see the NWChem manual at http://www.nwchem-sw.org/index.php/NWChem_Documentation


 For further details see manual section:                                                                                                                                                                                                                                                                
13:13:start: rtdb_open old failed:: 0
(rank:13 hostname:taub481 pid:5563):ARMCI DASSERT fail. ../../ga-5-1/armci/src/common/armci.c:ARMCI_Error():208 cond:0
 start: rtdb_open old failed         0
 ------------------------------------------------------------------------
 An error occured in the Runtime Database
 ------------------------------------------------------------------------
 For more information see the NWChem manual at http://www.nwchem-sw.org/index.php/NWChem_Documentation


 For further details see manual section:                                                                                                                                                                                                                                                                
25:25:start: rtdb_open old failed:: 0
(rank:25 hostname:taub477 pid:2593):ARMCI DASSERT fail. ../../ga-5-1/armci/src/common/armci.c:ARMCI_Error():208 cond:0
Last System Error Message from Task 25:: No such file or directory
 start: rtdb_open old failed         0
 ------------------------------------------------------------------------
 An error occured in the Runtime Database
 ------------------------------------------------------------------------
 For more information see the NWChem manual at http://www.nwchem-sw.org/index.php/NWChem_Documentation


 For further details see manual section:                                                                                                                                                                                                                                                                
26:26:start: rtdb_open old failed:: 0
(rank:26 hostname:taub477 pid:2594):ARMCI DASSERT fail. ../../ga-5-1/armci/src/common/armci.c:ARMCI_Error():208 cond:0
Last System Error Message from Task 26:: No such file or directory
Last System Error Message from Task 13:: No such file or directory
 start: rtdb_open old failed         0
 ------------------------------------------------------------------------
 An error occured in the Runtime Database
 ------------------------------------------------------------------------
 For more information see the NWChem manual at http://www.nwchem-sw.org/index.php/NWChem_Documentation


 For further details see manual section:                                                                                                                                                                                                                                                                
 start: rtdb_open old failed         0
 ------------------------------------------------------------------------
 An error occured in the Runtime Database
 ------------------------------------------------------------------------
 For more information see the NWChem manual at http://www.nwchem-sw.org/index.php/NWChem_Documentation


 For further details see manual section:                                                                                                                                                                                                                                                                
 start: rtdb_open old failed         0
 ------------------------------------------------------------------------
 An error occured in the Runtime Database
 ------------------------------------------------------------------------
 For more information see the NWChem manual at http://www.nwchem-sw.org/index.php/NWChem_Documentation


 For further details see manual section:                                                                                                                                                                                                                                                                
73:73:start: rtdb_open old failed:: 0
Last System Error Message from Task 73:: No such file or directory
 start: rtdb_open old failed         0
 ------------------------------------------------------------------------
 An error occured in the Runtime Database
 ------------------------------------------------------------------------
 For more information see the NWChem manual at http://www.nwchem-sw.org/index.php/NWChem_Documentation


 For further details see manual section:                                                                                                                                                                                                                                                                
 start: rtdb_open old failed         0
 ------------------------------------------------------------------------
 An error occured in the Runtime Database
 ------------------------------------------------------------------------
 For more information see the NWChem manual at http://www.nwchem-sw.org/index.php/NWChem_Documentation


 For further details see manual section:                                                                                                                                                                                                                                                                
(rank:73 hostname:taub432 pid:786):ARMCI DASSERT fail. ../../ga-5-1/armci/src/common/armci.c:ARMCI_Error():208 cond:0
 start: rtdb_open old failed         0
 ------------------------------------------------------------------------
 An error occured in the Runtime Database
 ------------------------------------------------------------------------
 For more information see the NWChem manual at http://www.nwchem-sw.org/index.php/NWChem_Documentation


 For further details see manual section:                                                                                                                                                                                                                                                                
Last System Error Message from Task 277:: No such file or directory
 start: rtdb_open old failed         0
 ------------------------------------------------------------------------
 An error occured in the Runtime Database
 ------------------------------------------------------------------------
 For more information see the NWChem manual at http://www.nwchem-sw.org/index.php/NWChem_Documentation


 For further details see manual section:                                                                                                                                                                                                                                                                
 start: rtdb_open old failed         0
 ------------------------------------------------------------------------
 An error occured in the Runtime Database
 ------------------------------------------------------------------------
 For more information see the NWChem manual at http://www.nwchem-sw.org/index.php/NWChem_Documentation


 For further details see manual section:                                                                                                                                                                                                                                                                
 start: rtdb_open old failed         0
 ------------------------------------------------------------------------
 An error occured in the Runtime Database
 ------------------------------------------------------------------------
 For more information see the NWChem manual at http://www.nwchem-sw.org/index.php/NWChem_Documentation


 For further details see manual section:                                                                                                                                                                                                                                                                
 start: rtdb_open old failed         0
 ------------------------------------------------------------------------
 An error occured in the Runtime Database
 ------------------------------------------------------------------------
 For more information see the NWChem manual at http://www.nwchem-sw.org/index.php/NWChem_Documentation


 For further details see manual section:                                                                                                                                                                                                                                                                
 start: rtdb_open old failed         0
 ------------------------------------------------------------------------
 An error occured in the Runtime Database
 ------------------------------------------------------------------------
 For more information see the NWChem manual at http://www.nwchem-sw.org/index.php/NWChem_Documentation


 For further details see manual section:                                                                                                                                                                                                                                                                
 start: rtdb_open old failed         0
 ------------------------------------------------------------------------
 An error occured in the Runtime Database
 ------------------------------------------------------------------------
 For more information see the NWChem manual at http://www.nwchem-sw.org/index.php/NWChem_Documentation


 For further details see manual section:                                                                                                                                                                                                                                                                
277:277:start: rtdb_open old failed:: 0
(rank:277 hostname:taub092 pid:27452):ARMCI DASSERT fail. ../../ga-5-1/armci/src/common/armci.c:ARMCI_Error():208 cond:0
27:27:start: rtdb_open old failed:: 0
Last System Error Message from Task 27:: No such file or directory
 start: rtdb_open old failed         0
 ------------------------------------------------------------------------
 An error occured in the Runtime Database
 ------------------------------------------------------------------------
 For more information see the NWChem manual at http://www.nwchem-sw.org/index.php/NWChem_Documentation


 For further details see manual section:                                                                                                                                                                                                                                                                
 start: rtdb_open old failed         0
 ------------------------------------------------------------------------
 An error occured in the Runtime Database
 ------------------------------------------------------------------------
 For more information see the NWChem manual at http://www.nwchem-sw.org/index.php/NWChem_Documentation


 For further details see manual section:                                                                                                                                                                                                                                                                
35:35:start: rtdb_open old failed:: 0
Last System Error Message from Task 35:: No such file or directory
(rank:27 hostname:taub477 pid:2595):ARMCI DASSERT fail. ../../ga-5-1/armci/src/common/armci.c:ARMCI_Error():208 cond:0
 start: rtdb_open old failed         0
 ------------------------------------------------------------------------
 An error occured in the Runtime Database
 ------------------------------------------------------------------------
 For more information see the NWChem manual at http://www.nwchem-sw.org/index.php/NWChem_Documentation


 For further details see manual section:                                                                                                                                                                                                                                                                
51:51:start: rtdb_open old failed:: 0
(rank:51 hostname:taub471 pid:2649):ARMCI DASSERT fail. ../../ga-5-1/armci/src/common/armci.c:ARMCI_Error():208 cond:0
 start: rtdb_open old failed         0
 ------------------------------------------------------------------------
 An error occured in the Runtime Database
 ------------------------------------------------------------------------
 For more information see the NWChem manual at http://www.nwchem-sw.org/index.php/NWChem_Documentation

