----------------------------------------
Begin Torque Prologue (Fri Mar  8 14:36:06 2013)
Job ID:           384276.taubm1.campuscluster.illinois.edu
Username:         davis68
Group:            npre_rizwan
Job Name:         U6H-211-top
Limits:           ncpus=1,neednodes=24:ppn=12,nodes=24:ppn=12,walltime=16:00:00
Job Queue:        cse
Account:          NPRE
Nodes:            taub324 taub333 taub338 taub339 taub340 taub352 taub385 taub387 taub388 taub389 taub391 taub404 taub405 taub406 taub409 taub410 taub411 taub431 taub440 taub441 taub442 taub443 taub455 taub509
End Torque Prologue
----------------------------------------
 argument  1 = ./U6H-211-top.nw



============================== echo of input deck ==============================
title "Gamma-uranium (211) adsorption"
echo

permanent_dir ./perm
scratch_dir   ./scratch

start U6H-211-top

memory 2500 mb

nwpw
  # Real-space discretization
  simulation_cell
    ngrid 36 48 320
  end

  # Spin multiplicity---quenched to 1 in the solid state
  mult 2

  # Band, k-point sampling, and parallelism
  monkhorst-pack 4 4 1
  np_dimensions 10 10 12
  mapping 2

  # Periodicity considerations
  ewald_rcut 3.0
  ewald_ncut 8

  # Simulation parameters
  #restricted    # DFT||ODFT||RESTRICTED||UNRESTRICTED
  xc pbe96
  cutoff 90.0
  loop 10 300
end
set nwpw:minimizer      2
set nwpw:lcao_skip      .true.
set nwpw:kbpp_ray       .true.
set nwpw:cif_filename U6-pbe96.opt

#       (211) gamma-uranium surface with surface displacements: 43.40%  -18.50% and H displacement of   0.250   Å
geometry        center  noautosym       noautoz print
        system  crystal
        lat_a   2.97913
        lat_b   4.86259
        lat_c   23.42762
        alpha   90.0d0
        beta    90.0d0
        gamma   90.0d0
        end
        U1      0.66667 0.50000 0.66494
        U2      0.33333 0.00000 0.63100
        U3      0.00000 0.50000 0.55996
        U4      0.66667 0.00000 0.50000
        U5      0.33333 0.50000 0.42895
        U6      0.00000 0.00000 0.39502
        H1      0.66667 0.50000 0.67561
end
#task band energy

nwpw
  simulation_cell
    ngrid 60 96 480
  end
end

#       (211) gamma-uranium surface with surface displacements:	43.40%	-18.50%	and H displacement of	0.250	Å
geometry	center	noautosym	noautoz	print
	system	crystal
	lat_a	2.97913
	lat_b	4.86259
	lat_c	23.42762
	alpha	90.0d0
	beta	90.0d0
	gamma	90.0d0
	end
	U1	0.66667	0.50000	0.66494
	U2	0.33333	0.00000	0.63100
	U3	0.00000	0.50000	0.55996
	U4	0.66667	0.00000	0.50000
	U5	0.33333	0.50000	0.42895
	U6	0.00000	0.00000	0.39502
	H1	0.66667	0.50000	0.67561
end
#task band energy

#       (211) gamma-uranium surface with surface displacements:	43.40%	-18.50%	and H displacement of	0.500	Å
geometry	center	noautosym	noautoz	print
	system	crystal
	lat_a	2.97913
	lat_b	4.86259
	lat_c	23.42762
	alpha	90.0d0
	beta	90.0d0
	gamma	90.0d0
	end
	U1	0.66667	0.50000	0.66494
	U2	0.33333	0.00000	0.63100
	U3	0.00000	0.50000	0.55996
	U4	0.66667	0.00000	0.50000
	U5	0.33333	0.50000	0.42895
	U6	0.00000	0.00000	0.39502
	H1	0.66667	0.50000	0.68628
end
task band energy

#       (211) gamma-uranium surface with surface displacements:	43.40%	-18.50%	and H displacement of	0.750	Å
geometry	center	noautosym	noautoz	print
	system	crystal
	lat_a	2.97913
	lat_b	4.86259
	lat_c	23.42762
	alpha	90.0d0
	beta	90.0d0
	gamma	90.0d0
	end
	U1	0.66667	0.50000	0.66494
	U2	0.33333	0.00000	0.63100
	U3	0.00000	0.50000	0.55996
	U4	0.66667	0.00000	0.50000
	U5	0.33333	0.50000	0.42895
	U6	0.00000	0.00000	0.39502
	H1	0.66667	0.50000	0.69695
end
task band energy

#       (211) gamma-uranium surface with surface displacements:	43.40%	-18.50%	and H displacement of	1.000	Å
geometry	center	noautosym	noautoz	print
	system	crystal
	lat_a	2.97913
	lat_b	4.86259
	lat_c	23.42762
	alpha	90.0d0
	beta	90.0d0
	gamma	90.0d0
	end
	U1	0.66667	0.50000	0.66494
	U2	0.33333	0.00000	0.63100
	U3	0.00000	0.50000	0.55996
	U4	0.66667	0.00000	0.50000
	U5	0.33333	0.50000	0.42895
	U6	0.00000	0.00000	0.39502
	H1	0.66667	0.50000	0.70762
end
task band energy

#       (211) gamma-uranium surface with surface displacements:	43.40%	-18.50%	and H displacement of	1.250	Å
geometry	center	noautosym	noautoz	print
	system	crystal
	lat_a	2.97913
	lat_b	4.86259
	lat_c	23.42762
	alpha	90.0d0
	beta	90.0d0
	gamma	90.0d0
	end
	U1	0.66667	0.50000	0.66494
	U2	0.33333	0.00000	0.63100
	U3	0.00000	0.50000	0.55996
	U4	0.66667	0.00000	0.50000
	U5	0.33333	0.50000	0.42895
	U6	0.00000	0.00000	0.39502
	H1	0.66667	0.50000	0.71829
end
task band energy

#       (211) gamma-uranium surface with surface displacements:	43.40%	-18.50%	and H displacement of	1.500	Å
geometry	center	noautosym	noautoz	print
	system	crystal
	lat_a	2.97913
	lat_b	4.86259
	lat_c	23.42762
	alpha	90.0d0
	beta	90.0d0
	gamma	90.0d0
	end
	U1	0.66667	0.50000	0.66494
	U2	0.33333	0.00000	0.63100
	U3	0.00000	0.50000	0.55996
	U4	0.66667	0.00000	0.50000
	U5	0.33333	0.50000	0.42895
	U6	0.00000	0.00000	0.39502
	H1	0.66667	0.50000	0.72896
end
task band energy

#       (211) gamma-uranium surface with surface displacements:	43.40%	-18.50%	and H displacement of	1.750	Å
geometry	center	noautosym	noautoz	print
	system	crystal
	lat_a	2.97913
	lat_b	4.86259
	lat_c	23.42762
	alpha	90.0d0
	beta	90.0d0
	gamma	90.0d0
	end
	U1	0.66667	0.50000	0.66494
	U2	0.33333	0.00000	0.63100
	U3	0.00000	0.50000	0.55996
	U4	0.66667	0.00000	0.50000
	U5	0.33333	0.50000	0.42895
	U6	0.00000	0.00000	0.39502
	H1	0.66667	0.50000	0.73963
end
task band energy

#       (211) gamma-uranium surface with surface displacements:	43.40%	-18.50%	and H displacement of	2.000	Å
geometry	center	noautosym	noautoz	print
	system	crystal
	lat_a	2.97913
	lat_b	4.86259
	lat_c	23.42762
	alpha	90.0d0
	beta	90.0d0
	gamma	90.0d0
	end
	U1	0.66667	0.50000	0.66494
	U2	0.33333	0.00000	0.63100
	U3	0.00000	0.50000	0.55996
	U4	0.66667	0.00000	0.50000
	U5	0.33333	0.50000	0.42895
	U6	0.00000	0.00000	0.39502
	H1	0.66667	0.50000	0.75031
end
task band energy

#       (211) gamma-uranium surface with surface displacements:	43.40%	-18.50%	and H displacement of	7.500	Å
geometry	center	noautosym	noautoz	print
	system	crystal
	lat_a	2.97913
	lat_b	4.86259
	lat_c	23.42762
	alpha	90.0d0
	beta	90.0d0
	gamma	90.0d0
	end
	U1	0.66667	0.50000	0.66494
	U2	0.33333	0.00000	0.63100
	U3	0.00000	0.50000	0.55996
	U4	0.66667	0.00000	0.50000
	U5	0.33333	0.50000	0.42895
	U6	0.00000	0.00000	0.39502
	H1	0.66667	0.50000	0.98507
end
task band energy

# A.M.D.G.
================================================================================


                                         
                                         


             Northwest Computational Chemistry Package (NWChem) 6.1.1
             --------------------------------------------------------


                    Environmental Molecular Sciences Laboratory
                       Pacific Northwest National Laboratory
                                Richland, WA 99352

                              Copyright (c) 1994-2012
                       Pacific Northwest National Laboratory
                            Battelle Memorial Institute

             NWChem is an open-source computational chemistry package
                        distributed under the terms of the
                      Educational Community License (ECL) 2.0
             A copy of the license is included with this distribution
                              in the LICENSE.TXT file

                                  ACKNOWLEDGMENT
                                  --------------

            This software and its documentation were developed at the
            EMSL at Pacific Northwest National Laboratory, a multiprogram
            national laboratory, operated for the U.S. Department of Energy
            by Battelle under Contract Number DE-AC05-76RL01830. Support
            for this work was provided by the Department of Energy Office
            of Biological and Environmental Research, Office of Basic
            Energy Sciences, and the Office of Advanced Scientific Computing.


           Job information
           ---------------

    hostname        = taub509
    program         = /home/davis68/bin/nwchem-dev
    date            = Fri Mar  8 14:36:12 2013

    compiled        = Wed_Oct_03_09:41:00_2012
    source          = /home/davis68/nwchem/nwchem-src-2012-Aug-27/
    nwchem branch   = Development
    nwchem revision = 22805
    ga revision     = 10079
    input           = ./U6H-211-top.nw
    prefix          = U6H-211-top.
    data base       = ./perm/U6H-211-top.db
    status          = startup
    nproc           =      288
    time left       =     -1s



           Memory information
           ------------------

    heap     =   81920001 doubles =    625.0 Mbytes
    stack    =   81920001 doubles =    625.0 Mbytes
    global   =  163840000 doubles =   1250.0 Mbytes (distinct from heap & stack)
    total    =  327680002 doubles =   2500.0 Mbytes
    verify   = yes
    hardfail = no 


           Directory information
           ---------------------

  0 permanent = ./perm
  0 scratch   = ./scratch




                                NWChem Input Module
                                -------------------


                          Gamma-uranium (211) adsorption
                          ------------------------------

  !!!!!!!!!  geom_3d NEEDS TESTING !!!!!!!!!! 


                             Geometry "geometry" -> ""
                             -------------------------

 Output coordinates in angstroms (scale by  1.889725989 to convert to a.u.)

  No.       Tag          Charge          X              Y              Z
 ---- ---------------- ---------- -------------- -------------- --------------
    1 U1                  92.0000     1.98609660     2.43129500    15.57796164
    2 U2                  92.0000     0.99303340     0.00000000    14.78282822
    3 U3                  92.0000     0.00000000     2.43129500    13.11853010
    4 U4                  92.0000     1.98609660     0.00000000    11.71381000
    5 U5                  92.0000     0.99303340     2.43129500    10.04927760
    6 U6                  92.0000     0.00000000     0.00000000     9.25437845
    7 H1                   1.0000     1.98609660     2.43129500    15.82793435

      Lattice Parameters 
      ------------------ 

      lattice vectors in angstroms (scale by  1.889725989 to convert to a.u.)

      a1=<   2.979   0.000   0.000 >
      a2=<   0.000   4.863   0.000 >
      a3=<   0.000   0.000  23.428 >
      a=       2.979 b=      4.863 c=      23.428
      alpha=  90.000 beta=  90.000 gamma=  90.000
      omega=   339.4

      reciprocal lattice vectors in a.u.

      b1=<   1.116   0.000  -0.000 >
      b2=<  -0.000   0.684  -0.000 >
      b3=<   0.000   0.000   0.142 >

      Atomic Mass 
      ----------- 

      U1               238.050800
      U2               238.050800
      U3               238.050800
      U4               238.050800
      U5               238.050800
      U6               238.050800
      H1                 1.007825


 ==============================================================================
                                internuclear distances
 ------------------------------------------------------------------------------
       center one      |      center two      | atomic units |  angstroms
 ------------------------------------------------------------------------------
    2 U2               |   1 U1               |     5.18543  |     2.74401
    3 U3               |   1 U1               |     5.97386  |     3.16123
    3 U3               |   2 U2               |     5.87556  |     3.10921
    4 U4               |   2 U2               |     6.09566  |     3.22569
    4 U4               |   3 U3               |     6.49940  |     3.43933
    5 U5               |   3 U3               |     6.09607  |     3.22590
    5 U5               |   4 U4               |     5.87581  |     3.10935
    6 U6               |   4 U4               |     5.97386  |     3.16123
    6 U6               |   5 U5               |     5.18528  |     2.74393
    7 H1               |   1 U1               |     0.47238  |     0.24997
 ------------------------------------------------------------------------------
                         number of included internuclear distances:         10
 ==============================================================================



 ==============================================================================
                                 internuclear angles
 ------------------------------------------------------------------------------
        center 1       |       center 2       |       center 3       |  degrees
 ------------------------------------------------------------------------------
    1 U1               |   2 U2               |   3 U3               |    65.03
    2 U2               |   1 U1               |   7 H1               |   106.84
    3 U3               |   1 U1               |   7 H1               |   141.08
    1 U1               |   2 U2               |   3 U3               |    65.03
    1 U1               |   2 U2               |   4 U4               |    99.46
    3 U3               |   2 U2               |   4 U4               |    65.74
    3 U3               |   2 U2               |   1 U1               |    65.03
    1 U1               |   3 U3               |   4 U4               |    87.42
    1 U1               |   3 U3               |   5 U5               |   123.15
    3 U3               |   2 U2               |   4 U4               |    65.74
    2 U2               |   3 U3               |   5 U5               |   114.27
    3 U3               |   5 U5               |   4 U4               |    65.73
    4 U4               |   2 U2               |   3 U3               |    65.74
    2 U2               |   4 U4               |   5 U5               |   114.27
    2 U2               |   4 U4               |   6 U6               |   123.15
    4 U4               |   5 U5               |   3 U3               |    65.73
    3 U3               |   4 U4               |   6 U6               |    87.42
    4 U4               |   5 U5               |   6 U6               |    65.03
    3 U3               |   5 U5               |   4 U4               |    65.73
    3 U3               |   5 U5               |   6 U6               |    99.45
    4 U4               |   5 U5               |   6 U6               |    65.03
    6 U6               |   5 U5               |   4 U4               |    65.03
 ------------------------------------------------------------------------------
                            number of included internuclear angles:         22
 ==============================================================================




  !!!!!!!!!  geom_3d NEEDS TESTING !!!!!!!!!! 


                         Geometry "geometry" -> "        "
                         ---------------------------------

 Output coordinates in angstroms (scale by  1.889725989 to convert to a.u.)

  No.       Tag          Charge          X              Y              Z
 ---- ---------------- ---------- -------------- -------------- --------------
    1 U1                  92.0000     1.98609660     2.43129500    15.57796164
    2 U2                  92.0000     0.99303340     0.00000000    14.78282822
    3 U3                  92.0000     0.00000000     2.43129500    13.11853010
    4 U4                  92.0000     1.98609660     0.00000000    11.71381000
    5 U5                  92.0000     0.99303340     2.43129500    10.04927760
    6 U6                  92.0000     0.00000000     0.00000000     9.25437845
    7 H1                   1.0000     1.98609660     2.43129500    15.82793435

      Lattice Parameters 
      ------------------ 

      lattice vectors in angstroms (scale by  1.889725989 to convert to a.u.)

      a1=<   2.979   0.000   0.000 >
      a2=<   0.000   4.863   0.000 >
      a3=<   0.000   0.000  23.428 >
      a=       2.979 b=      4.863 c=      23.428
      alpha=  90.000 beta=  90.000 gamma=  90.000
      omega=   339.4

      reciprocal lattice vectors in a.u.

      b1=<   1.116   0.000  -0.000 >
      b2=<  -0.000   0.684  -0.000 >
      b3=<   0.000   0.000   0.142 >

      Atomic Mass 
      ----------- 

      U1               238.050800
      U2               238.050800
      U3               238.050800
      U4               238.050800
      U5               238.050800
      U6               238.050800
      H1                 1.007825


 ==============================================================================
                                internuclear distances
 ------------------------------------------------------------------------------
       center one      |      center two      | atomic units |  angstroms
 ------------------------------------------------------------------------------
    2 U2               |   1 U1               |     5.18543  |     2.74401
    3 U3               |   1 U1               |     5.97386  |     3.16123
    3 U3               |   2 U2               |     5.87556  |     3.10921
    4 U4               |   2 U2               |     6.09566  |     3.22569
    4 U4               |   3 U3               |     6.49940  |     3.43933
    5 U5               |   3 U3               |     6.09607  |     3.22590
    5 U5               |   4 U4               |     5.87581  |     3.10935
    6 U6               |   4 U4               |     5.97386  |     3.16123
    6 U6               |   5 U5               |     5.18528  |     2.74393
    7 H1               |   1 U1               |     0.47238  |     0.24997
 ------------------------------------------------------------------------------
                         number of included internuclear distances:         10
 ==============================================================================



 ==============================================================================
                                 internuclear angles
 ------------------------------------------------------------------------------
        center 1       |       center 2       |       center 3       |  degrees
 ------------------------------------------------------------------------------
    1 U1               |   2 U2               |   3 U3               |    65.03
    2 U2               |   1 U1               |   7 H1               |   106.84
    3 U3               |   1 U1               |   7 H1               |   141.08
    1 U1               |   2 U2               |   3 U3               |    65.03
    1 U1               |   2 U2               |   4 U4               |    99.46
    3 U3               |   2 U2               |   4 U4               |    65.74
    3 U3               |   2 U2               |   1 U1               |    65.03
    1 U1               |   3 U3               |   4 U4               |    87.42
    1 U1               |   3 U3               |   5 U5               |   123.15
    3 U3               |   2 U2               |   4 U4               |    65.74
    2 U2               |   3 U3               |   5 U5               |   114.27
    3 U3               |   5 U5               |   4 U4               |    65.73
    4 U4               |   2 U2               |   3 U3               |    65.74
    2 U2               |   4 U4               |   5 U5               |   114.27
    2 U2               |   4 U4               |   6 U6               |   123.15
    4 U4               |   5 U5               |   3 U3               |    65.73
    3 U3               |   4 U4               |   6 U6               |    87.42
    4 U4               |   5 U5               |   6 U6               |    65.03
    3 U3               |   5 U5               |   4 U4               |    65.73
    3 U3               |   5 U5               |   6 U6               |    99.45
    4 U4               |   5 U5               |   6 U6               |    65.03
    6 U6               |   5 U5               |   4 U4               |    65.03
 ------------------------------------------------------------------------------
                            number of included internuclear angles:         22
 ==============================================================================




  !!!!!!!!!  geom_3d NEEDS TESTING !!!!!!!!!! 


                         Geometry "geometry" -> "        "
                         ---------------------------------

 Output coordinates in angstroms (scale by  1.889725989 to convert to a.u.)

  No.       Tag          Charge          X              Y              Z
 ---- ---------------- ---------- -------------- -------------- --------------
    1 U1                  92.0000     1.98609660     2.43129500    15.57796164
    2 U2                  92.0000     0.99303340     0.00000000    14.78282822
    3 U3                  92.0000     0.00000000     2.43129500    13.11853010
    4 U4                  92.0000     1.98609660     0.00000000    11.71381000
    5 U5                  92.0000     0.99303340     2.43129500    10.04927760
    6 U6                  92.0000     0.00000000     0.00000000     9.25437845
    7 H1                   1.0000     1.98609660     2.43129500    16.07790705

      Lattice Parameters 
      ------------------ 

      lattice vectors in angstroms (scale by  1.889725989 to convert to a.u.)

      a1=<   2.979   0.000   0.000 >
      a2=<   0.000   4.863   0.000 >
      a3=<   0.000   0.000  23.428 >
      a=       2.979 b=      4.863 c=      23.428
      alpha=  90.000 beta=  90.000 gamma=  90.000
      omega=   339.4

      reciprocal lattice vectors in a.u.

      b1=<   1.116   0.000  -0.000 >
      b2=<  -0.000   0.684  -0.000 >
      b3=<   0.000   0.000   0.142 >

      Atomic Mass 
      ----------- 

      U1               238.050800
      U2               238.050800
      U3               238.050800
      U4               238.050800
      U5               238.050800
      U6               238.050800
      H1                 1.007825


 ==============================================================================
                                internuclear distances
 ------------------------------------------------------------------------------
       center one      |      center two      | atomic units |  angstroms
 ------------------------------------------------------------------------------
    2 U2               |   1 U1               |     5.18543  |     2.74401
    3 U3               |   1 U1               |     5.97386  |     3.16123
    3 U3               |   2 U2               |     5.87556  |     3.10921
    4 U4               |   2 U2               |     6.09566  |     3.22569
    4 U4               |   3 U3               |     6.49940  |     3.43933
    5 U5               |   3 U3               |     6.09607  |     3.22590
    5 U5               |   4 U4               |     5.87581  |     3.10935
    6 U6               |   4 U4               |     5.97386  |     3.16123
    6 U6               |   5 U5               |     5.18528  |     2.74393
    7 H1               |   1 U1               |     0.94476  |     0.49995
 ------------------------------------------------------------------------------
                         number of included internuclear distances:         10
 ==============================================================================



 ==============================================================================
                                 internuclear angles
 ------------------------------------------------------------------------------
        center 1       |       center 2       |       center 3       |  degrees
 ------------------------------------------------------------------------------
    1 U1               |   2 U2               |   3 U3               |    65.03
    2 U2               |   1 U1               |   7 H1               |   106.84
    3 U3               |   1 U1               |   7 H1               |   141.08
    1 U1               |   2 U2               |   3 U3               |    65.03
    1 U1               |   2 U2               |   4 U4               |    99.46
    3 U3               |   2 U2               |   4 U4               |    65.74
    3 U3               |   2 U2               |   1 U1               |    65.03
    1 U1               |   3 U3               |   4 U4               |    87.42
    1 U1               |   3 U3               |   5 U5               |   123.15
    3 U3               |   2 U2               |   4 U4               |    65.74
    2 U2               |   3 U3               |   5 U5               |   114.27
    3 U3               |   5 U5               |   4 U4               |    65.73
    4 U4               |   2 U2               |   3 U3               |    65.74
    2 U2               |   4 U4               |   5 U5               |   114.27
    2 U2               |   4 U4               |   6 U6               |   123.15
    4 U4               |   5 U5               |   3 U3               |    65.73
    3 U3               |   4 U4               |   6 U6               |    87.42
    4 U4               |   5 U5               |   6 U6               |    65.03
    3 U3               |   5 U5               |   4 U4               |    65.73
    3 U3               |   5 U5               |   6 U6               |    99.45
    4 U4               |   5 U5               |   6 U6               |    65.03
    6 U6               |   5 U5               |   4 U4               |    65.03
 ------------------------------------------------------------------------------
                            number of included internuclear angles:         22
 ==============================================================================



          **********************************************************
          *                                                        *
          *                   NWPW BAND Calculation                *
          *                                                        *
          *  [(bundled Grassman/Stiefel manifold implementation)]  *
          *                                                        *
          *         [ NorthWest Chemistry implementation ]         *
          *                                                        *
          *                version #1.10   01/31/03                *
          *                                                        *
          *  A pseudopotential plane-wave band structure program   *
          *  with Brillouin zone sampling for optimizing crystals, *
          *  slabs, and polymers.  Developed by Eric J. Bylaska    *
          *  , Edoardo Apra, and Patrick Nichols.                  *
          *                                                        *
          **********************************************************
     >>>  JOB STARTED       AT Fri Mar  8 14:36:13 2013  <<<
          ================ input data ========================
  library name resolved from: environment
  NWCHEM_NWPW_LIBRARY set to: </home/davis68/nwchem/nwchem-6.1/src/nwpw/libraryps/>
 Generating 1d pseudopotential for U   

 Generated formatted_filename: ./perm/U.cpp
 - Spline fitted, nray=42243 -
  library name resolved from: environment
  NWCHEM_NWPW_LIBRARY set to: </home/davis68/nwchem/nwchem-6.1/src/nwpw/libraryps/>
 Generating 1d pseudopotential for H   

 Generated formatted_filename: ./perm/H.cpp
 - Spline fitted, nray=42243 -
 random planewave guess, initial psi:U6H-211-top.movecs                                
 -   spin, nalpha, nbeta:                    2                   43                   42

 input psi filename:./perm/U6H-211-top.movecs
Warning - Orthogonalization performed, spin,zone: 1   1
        - error(before)=  0.602513E+01 (  0.369749E+02)
        - error(after)=   0.000000E+00 (  0.430000E+02)
Warning - Orthogonalization performed, spin,zone: 2   1
        - error(before)=  0.588786E+01 (  0.361121E+02)
        - error(after)=   0.142109E-13 (  0.420000E+02)
Warning - Orthogonalization performed, spin,zone: 1   2
        - error(before)=  0.602593E+01 (  0.369741E+02)
        - error(after)=   0.710543E-14 (  0.430000E+02)
Warning - Orthogonalization performed, spin,zone: 2   2
        - error(before)=  0.588745E+01 (  0.361125E+02)
        - error(after)=   0.710543E-14 (  0.420000E+02)
Warning - Orthogonalization performed, spin,zone: 1   3
        - error(before)=  0.602555E+01 (  0.369744E+02)
        - error(after)=   0.000000E+00 (  0.430000E+02)
Warning - Orthogonalization performed, spin,zone: 2   3
        - error(before)=  0.588778E+01 (  0.361122E+02)
        - error(after)=   0.000000E+00 (  0.420000E+02)
Warning - Orthogonalization performed, spin,zone: 1   4
        - error(before)=  0.602510E+01 (  0.369749E+02)
        - error(after)=   0.710543E-14 (  0.430000E+02)
Warning - Orthogonalization performed, spin,zone: 2   4
        - error(before)=  0.588810E+01 (  0.361119E+02)
        - error(after)=   0.000000E+00 (  0.420000E+02)
Warning - Orthogonalization performed, spin,zone: 1   5
        - error(before)=  0.602583E+01 (  0.369742E+02)
        - error(after)=   0.710543E-14 (  0.430000E+02)
Warning - Orthogonalization performed, spin,zone: 2   5
        - error(before)=  0.588776E+01 (  0.361122E+02)
        - error(after)=   0.710543E-14 (  0.420000E+02)
Warning - Orthogonalization performed, spin,zone: 1   6
        - error(before)=  0.602613E+01 (  0.369739E+02)
        - error(after)=   0.710543E-14 (  0.430000E+02)
Warning - Orthogonalization performed, spin,zone: 2   6
        - error(before)=  0.588734E+01 (  0.361127E+02)
        - error(after)=   0.000000E+00 (  0.420000E+02)
Warning - Orthogonalization performed, spin,zone: 1   7
        - error(before)=  0.602506E+01 (  0.369749E+02)
        - error(after)=   0.000000E+00 (  0.430000E+02)
Warning - Orthogonalization performed, spin,zone: 2   7
        - error(before)=  0.588856E+01 (  0.361114E+02)