----------------------------------------
Begin Torque Prologue (Sat Mar  9 12:23:47 2013)
Job ID:           384543.taubm1.campuscluster.illinois.edu
Username:         davis68
Group:            npre_rizwan
Job Name:         U6H-100-ctr
Limits:           ncpus=1,neednodes=24:ppn=12,nodes=24:ppn=12,walltime=16:00:00
Job Queue:        cse
Account:          NPRE
Nodes:            taub096 taub228 taub230 taub231 taub244 taub339 taub340 taub352 taub380 taub385 taub387 taub406 taub409 taub410 taub411 taub431 taub440 taub441 taub442 taub443 taub455 taub495 taub499 taub500
End Torque Prologue
----------------------------------------
 argument  1 = ./U6H-100-ctr.nw



============================== echo of input deck ==============================
title "Gamma-uranium (100) slab relaxation"
echo

permanent_dir ./perm
scratch_dir   ./scratch

start U6H-100-ctr

memory 2500 mb

nwpw
  # Real-space discretization
  simulation_cell
    ngrid 36 36 256
  end

  # Spin multiplicity---quenched to 1 in the solid state
  mult 2

  # Band, k-point sampling, and parallelism
  monkhorst-pack 4 4 1
  np_dimensions 8 12 8
  mapping 2

  # Periodicity considerations
  ewald_rcut 3.0
  ewald_ncut 8

  # Simulation parameters
  #restricted    # DFT||ODFT||RESTRICTED||UNRESTRICTED
  xc pbe96
  cutoff 90.0
  loop 10 300
end
set nwpw:minimizer      2
set nwpw:lcao_skip      .true.
set nwpw:kbpp_ray       .true.
set nwpw:cif_filename U6-pbe96.opt

#       (100) gamma-uranium surface with surface displacements:	29.7%	-15.3%	and H displacement of	-0.250	Å
geometry	center	noautosym	noautoz	print
	system	crystal
	lat_a	3.44
	lat_b	3.44
	lat_c	25.32
	alpha	90.0d0
	beta	90.0d0
	gamma	90.0d0
	end
	U1	0.50000	0.50000	0.69401
	U2	0.00000	0.00000	0.64625
	U3	0.50000	0.50000	0.56793
	U4	0.00000	0.00000	0.50000
	U5	0.50000	0.50000	0.42168
	U6	0.00000	0.00000	0.37392
	H1	0.00000	0.00000	0.68414
end
task band energy

nwpw
  simulation_cell
    ngrid 64 64 512
  end
end

#       (100) gamma-uranium surface with surface displacements:	29.7%	-15.3%	and H displacement of	-0.250	Å
geometry	center	noautosym	noautoz	print
	system	crystal
	lat_a	3.44
	lat_b	3.44
	lat_c	25.32
	alpha	90.0d0
	beta	90.0d0
	gamma	90.0d0
	end
	U1	0.50000	0.50000	0.69401
	U2	0.00000	0.00000	0.64625
	U3	0.50000	0.50000	0.56793
	U4	0.00000	0.00000	0.50000
	U5	0.50000	0.50000	0.42168
	U6	0.00000	0.00000	0.37392
	H1	0.00000	0.00000	0.68414
end
task band energy

#       (100) gamma-uranium surface with surface displacements:	29.7%	-15.3%	and H displacement of	0.000	Å
geometry	center	noautosym	noautoz	print
	system	crystal
	lat_a	3.44
	lat_b	3.44
	lat_c	25.32
	alpha	90.0d0
	beta	90.0d0
	gamma	90.0d0
	end
	U1	0.50000	0.50000	0.69401
	U2	0.00000	0.00000	0.64625
	U3	0.50000	0.50000	0.56793
	U4	0.00000	0.00000	0.50000
	U5	0.50000	0.50000	0.42168
	U6	0.00000	0.00000	0.37392
	H1	0.00000	0.00000	0.69401
end
task band energy

#       (100) gamma-uranium surface with surface displacements:	29.7%	-15.3%	and H displacement of	0.250	Å
geometry	center	noautosym	noautoz	print
	system	crystal
	lat_a	3.44
	lat_b	3.44
	lat_c	25.32
	alpha	90.0d0
	beta	90.0d0
	gamma	90.0d0
	end
	U1	0.50000	0.50000	0.69401
	U2	0.00000	0.00000	0.64625
	U3	0.50000	0.50000	0.56793
	U4	0.00000	0.00000	0.50000
	U5	0.50000	0.50000	0.42168
	U6	0.00000	0.00000	0.37392
	H1	0.00000	0.00000	0.70388
end
task band energy

#       (100) gamma-uranium surface with surface displacements:	29.7%	-15.3%	and H displacement of	0.500	Å
geometry	center	noautosym	noautoz	print
	system	crystal
	lat_a	3.44
	lat_b	3.44
	lat_c	25.32
	alpha	90.0d0
	beta	90.0d0
	gamma	90.0d0
	end
	U1	0.50000	0.50000	0.69401
	U2	0.00000	0.00000	0.64625
	U3	0.50000	0.50000	0.56793
	U4	0.00000	0.00000	0.50000
	U5	0.50000	0.50000	0.42168
	U6	0.00000	0.00000	0.37392
	H1	0.00000	0.00000	0.71376
end
task band energy

#       (100) gamma-uranium surface with surface displacements:	29.7%	-15.3%	and H displacement of	0.750	Å
geometry	center	noautosym	noautoz	print
	system	crystal
	lat_a	3.44
	lat_b	3.44
	lat_c	25.32
	alpha	90.0d0
	beta	90.0d0
	gamma	90.0d0
	end
	U1	0.50000	0.50000	0.69401
	U2	0.00000	0.00000	0.64625
	U3	0.50000	0.50000	0.56793
	U4	0.00000	0.00000	0.50000
	U5	0.50000	0.50000	0.42168
	U6	0.00000	0.00000	0.37392
	H1	0.00000	0.00000	0.72363
end
task band energy

#       (100) gamma-uranium surface with surface displacements:	29.7%	-15.3%	and H displacement of	1.000	Å
geometry	center	noautosym	noautoz	print
	system	crystal
	lat_a	3.44
	lat_b	3.44
	lat_c	25.32
	alpha	90.0d0
	beta	90.0d0
	gamma	90.0d0
	end
	U1	0.50000	0.50000	0.69401
	U2	0.00000	0.00000	0.64625
	U3	0.50000	0.50000	0.56793
	U4	0.00000	0.00000	0.50000
	U5	0.50000	0.50000	0.42168
	U6	0.00000	0.00000	0.37392
	H1	0.00000	0.00000	0.73350
end
task band energy

# A.M.D.G.
================================================================================


                                         
                                         


             Northwest Computational Chemistry Package (NWChem) 6.1.1
             --------------------------------------------------------


                    Environmental Molecular Sciences Laboratory
                       Pacific Northwest National Laboratory
                                Richland, WA 99352

                              Copyright (c) 1994-2012
                       Pacific Northwest National Laboratory
                            Battelle Memorial Institute

             NWChem is an open-source computational chemistry package
                        distributed under the terms of the
                      Educational Community License (ECL) 2.0
             A copy of the license is included with this distribution
                              in the LICENSE.TXT file

                                  ACKNOWLEDGMENT
                                  --------------

            This software and its documentation were developed at the
            EMSL at Pacific Northwest National Laboratory, a multiprogram
            national laboratory, operated for the U.S. Department of Energy
            by Battelle under Contract Number DE-AC05-76RL01830. Support
            for this work was provided by the Department of Energy Office
            of Biological and Environmental Research, Office of Basic
            Energy Sciences, and the Office of Advanced Scientific Computing.


           Job information
           ---------------

    hostname        = taub500
    program         = /home/davis68/bin/nwchem-dev
    date            = Sat Mar  9 12:23:52 2013

    compiled        = Wed_Oct_03_09:41:00_2012
    source          = /home/davis68/nwchem/nwchem-src-2012-Aug-27/
    nwchem branch   = Development
    nwchem revision = 22805
    ga revision     = 10079
    input           = ./U6H-100-ctr.nw
    prefix          = U6H-100-ctr.
    data base       = ./perm/U6H-100-ctr.db
    status          = startup
    nproc           =      288
    time left       =     -1s



           Memory information
           ------------------

    heap     =   81920001 doubles =    625.0 Mbytes
    stack    =   81920001 doubles =    625.0 Mbytes
    global   =  163840000 doubles =   1250.0 Mbytes (distinct from heap & stack)
    total    =  327680002 doubles =   2500.0 Mbytes
    verify   = yes
    hardfail = no 


           Directory information
           ---------------------

  0 permanent = ./perm
  0 scratch   = ./scratch




                                NWChem Input Module
                                -------------------


                        Gamma-uranium (100) slab relaxation
                        -----------------------------------

  !!!!!!!!!  geom_3d NEEDS TESTING !!!!!!!!!! 


                             Geometry "geometry" -> ""
                             -------------------------

 Output coordinates in angstroms (scale by  1.889725989 to convert to a.u.)

  No.       Tag          Charge          X              Y              Z
 ---- ---------------- ---------- -------------- -------------- --------------
    1 U1                  92.0000     1.72000000     1.72000000    17.57233320
    2 U2                  92.0000     0.00000000     0.00000000    16.36305000
    3 U3                  92.0000     1.72000000     1.72000000    14.37998760
    4 U4                  92.0000     0.00000000     0.00000000    12.66000000
    5 U5                  92.0000     1.72000000     1.72000000    10.67693760
    6 U6                  92.0000     0.00000000     0.00000000     9.46765440
    7 H1                   1.0000     0.00000000     0.00000000    17.32242480

      Lattice Parameters 
      ------------------ 

      lattice vectors in angstroms (scale by  1.889725989 to convert to a.u.)

      a1=<   3.440   0.000   0.000 >
      a2=<   0.000   3.440   0.000 >
      a3=<   0.000   0.000  25.320 >
      a=       3.440 b=      3.440 c=      25.320
      alpha=  90.000 beta=  90.000 gamma=  90.000
      omega=   299.6

      reciprocal lattice vectors in a.u.

      b1=<   0.967   0.000  -0.000 >
      b2=<  -0.000   0.967  -0.000 >
      b3=<   0.000   0.000   0.131 >

      Atomic Mass 
      ----------- 

      U1               238.050800
      U2               238.050800
      U3               238.050800
      U4               238.050800
      U5               238.050800
      U6               238.050800
      H1                 1.007825


 ==============================================================================
                                internuclear distances
 ------------------------------------------------------------------------------
       center one      |      center two      | atomic units |  angstroms
 ------------------------------------------------------------------------------
    2 U2               |   1 U1               |     5.13337  |     2.71646
    3 U3               |   1 U1               |     6.03266  |     3.19235
    3 U3               |   2 U2               |     5.93065  |     3.13837
    4 U4               |   2 U2               |     6.99775  |     3.70305
    4 U4               |   3 U3               |     5.62972  |     2.97912
    5 U5               |   3 U3               |     6.99775  |     3.70305
    5 U5               |   4 U4               |     5.93065  |     3.13837
    6 U6               |   4 U4               |     6.03266  |     3.19235
    6 U6               |   5 U5               |     5.13337  |     2.71646
    7 H1               |   1 U1               |     4.62086  |     2.44525
    7 H1               |   2 U2               |     1.81296  |     0.95937
 ------------------------------------------------------------------------------
                         number of included internuclear distances:         11
 ==============================================================================



 ==============================================================================
                                 internuclear angles
 ------------------------------------------------------------------------------
        center 1       |       center 2       |       center 3       |  degrees
 ------------------------------------------------------------------------------
    1 U1               |   2 U2               |   3 U3               |    65.62
    1 U1               |   7 H1               |   2 U2               |    95.87
    3 U3               |   1 U1               |   7 H1               |    84.13
    1 U1               |   2 U2               |   3 U3               |    65.62
    1 U1               |   2 U2               |   4 U4               |   116.43
    2 U2               |   7 H1               |   1 U1               |    95.87
    2 U2               |   3 U3               |   4 U4               |    74.45
    3 U3               |   2 U2               |   7 H1               |   129.19
    4 U4               |   2 U2               |   7 H1               |   180.00
    3 U3               |   2 U2               |   1 U1               |    65.62
    1 U1               |   3 U3               |   4 U4               |   125.26
    1 U1               |   3 U3               |   5 U5               |   180.00
    2 U2               |   3 U3               |   4 U4               |    74.45
    2 U2               |   3 U3               |   5 U5               |   129.19
    3 U3               |   4 U4               |   5 U5               |    74.45
    4 U4               |   3 U3               |   2 U2               |    74.45
    2 U2               |   4 U4               |   5 U5               |   129.19
    2 U2               |   4 U4               |   6 U6               |   180.00
    3 U3               |   4 U4               |   5 U5               |    74.45
    3 U3               |   4 U4               |   6 U6               |   125.26
    4 U4               |   5 U5               |   6 U6               |    65.62
    5 U5               |   4 U4               |   3 U3               |    74.45
    3 U3               |   5 U5               |   6 U6               |   116.43
    4 U4               |   5 U5               |   6 U6               |    65.62
    6 U6               |   5 U5               |   4 U4               |    65.62
    1 U1               |   7 H1               |   2 U2               |    95.87
 ------------------------------------------------------------------------------
                            number of included internuclear angles:         26
 ==============================================================================



          **********************************************************
          *                                                        *
          *                   NWPW BAND Calculation                *
          *                                                        *
          *  [(bundled Grassman/Stiefel manifold implementation)]  *
          *                                                        *
          *         [ NorthWest Chemistry implementation ]         *
          *                                                        *
          *                version #1.10   01/31/03                *
          *                                                        *
          *  A pseudopotential plane-wave band structure program   *
          *  with Brillouin zone sampling for optimizing crystals, *
          *  slabs, and polymers.  Developed by Eric J. Bylaska    *
          *  , Edoardo Apra, and Patrick Nichols.                  *
          *                                                        *
          **********************************************************
     >>>  JOB STARTED       AT Sat Mar  9 12:23:53 2013  <<<
          ================ input data ========================
  library name resolved from: environment
  NWCHEM_NWPW_LIBRARY set to: </home/davis68/nwchem/nwchem-6.1/src/nwpw/libraryps/>
 Generating 1d pseudopotential for U   

 Generated formatted_filename: ./perm/U.cpp
 - Spline fitted, nray=24215 -
  library name resolved from: environment
  NWCHEM_NWPW_LIBRARY set to: </home/davis68/nwchem/nwchem-6.1/src/nwpw/libraryps/>
 Generating 1d pseudopotential for H   

 Generated formatted_filename: ./perm/H.cpp
 - Spline fitted, nray=24215 -
 random planewave guess, initial psi:U6H-100-ctr.movecs                                
 -   spin, nalpha, nbeta:                    2                   43                   42

 input psi filename:./perm/U6H-100-ctr.movecs
Warning - Orthogonalization performed, spin,zone: 1   1
        - error(before)=  0.468416E+01 (  0.383158E+02)
        - error(after)=   0.000000E+00 (  0.430000E+02)
Warning - Orthogonalization performed, spin,zone: 2   1
        - error(before)=  0.457701E+01 (  0.374230E+02)
        - error(after)=   0.142109E-13 (  0.420000E+02)
Warning - Orthogonalization performed, spin,zone: 1   2
        - error(before)=  0.468771E+01 (  0.383123E+02)
        - error(after)=   0.000000E+00 (  0.430000E+02)
Warning - Orthogonalization performed, spin,zone: 2   2
        - error(before)=  0.457902E+01 (  0.374210E+02)
        - error(after)=   0.710543E-14 (  0.420000E+02)
Warning - Orthogonalization performed, spin,zone: 1   3
        - error(before)=  0.468829E+01 (  0.383117E+02)
        - error(after)=   0.000000E+00 (  0.430000E+02)
Warning - Orthogonalization performed, spin,zone: 2   3
        - error(before)=  0.457946E+01 (  0.374205E+02)
        - error(after)=   0.710543E-14 (  0.420000E+02)
Warning - Orthogonalization performed, spin,zone: 1   4
        - error(before)=  0.468403E+01 (  0.383160E+02)
        - error(after)=   0.000000E+00 (  0.430000E+02)
Warning - Orthogonalization performed, spin,zone: 2   4
        - error(before)=  0.457572E+01 (  0.374243E+02)
        - error(after)=   0.000000E+00 (  0.420000E+02)
Warning - Orthogonalization performed, spin,zone: 1   5
        - error(before)=  0.468820E+01 (  0.383118E+02)
        - error(after)=   0.710543E-14 (  0.430000E+02)
Warning - Orthogonalization performed, spin,zone: 2   5
        - error(before)=  0.458027E+01 (  0.374197E+02)
        - error(after)=   0.142109E-13 (  0.420000E+02)
Warning - Orthogonalization performed, spin,zone: 1   6
        - error(before)=  0.468665E+01 (  0.383134E+02)
        - error(after)=   0.000000E+00 (  0.430000E+02)
Warning - Orthogonalization performed, spin,zone: 2   6
        - error(before)=  0.458157E+01 (  0.374184E+02)
        - error(after)=   0.710543E-14 (  0.420000E+02)
Warning - Orthogonalization performed, spin,zone: 1   7
        - error(before)=  0.468694E+01 (  0.383131E+02)
        - error(after)=   0.710543E-14 (  0.430000E+02)
Warning - Orthogonalization performed, spin,zone: 2   7
        - error(before)=  0.457911E+01 (  0.374209E+02)
        - error(after)=   0.000000E+00 (  0.420000E+02)
Warning - Orthogonalization performed, spin,zone: 1   8
        - error(before)=  0.468710E+01 (  0.383129E+02)
        - error(after)=   0.000000E+00 (  0.430000E+02)
Warning - Orthogonalization performed, spin,zone: 2   8
        - error(before)=  0.457780E+01 (  0.374222E+02)
        - error(after)=   0.000000E+00 (  0.420000E+02)

 number of processors used:             288
 processor grid           :  36 x   1 x   8
 parallel mapping         :     2d  hilbert

 options:
      boundary conditions  = periodic    (version3)
      electron spin        = unrestricted
      exchange-correlation = PBE96 (White and Bird) parameterization

 elements involved in the cluster:
      1: U     core charge:14.0  lmax=3
             comment    : Parameterized (J.Chem. Phys. vol 128, 124507 (2008)) Troullier-Martins psp
             pseudpotential type            :   0
             highest angular component      :   3
             local potential used           :   0
             number of non-local projections:  15
             cutoff =   1.421   1.602   2.400   1.250
      2: H     core charge: 1.0  lmax=1
             comment    : Parameterized (Chem.Phys.Lett., vol 322, page 447) Hamman psp
             pseudpotential type            :   0
             highest angular component      :   1
             local potential used           :   1
             number of non-local projections:   1
             cutoff =   0.800   0.800

 total charge:   0.000

 atomic composition:
     U   :  6     H   :  1

 number of electrons: spin up=   43.00  spin down=   42.00 (fourier space)
 number of orbitals:  spin up=      43  spin down=      42 (fourier space)

 supercell:
      lattice:    a1=<   6.501   0.000   0.000 >
                  a2=<   0.000   6.501   0.000 >
                  a3=<   0.000   0.000  47.848 >
      reciprocal: b1=<   0.967   0.000  -0.000 >
                  b2=<  -0.000   0.967  -0.000 >
                  b3=<   0.000   0.000   0.131 >

      lattice:    a=   6.501    b=   6.501     c=  47.848
              alpha=  90.000 beta=  90.000 gamma=  90.000
      volume :     2022.0
      ewald summation: cut radius=    3.00  and  8
                        madelung=-4.59469223

 brillouin zone:
      number of zone points:     8
      weight=   0.125  ks=<   0.375   0.375   0.000 >, k=<   0.362   0.362  -0.000>
      weight=   0.125  ks=<   0.125   0.375   0.000 >, k=<   0.121   0.362  -0.000>
      weight=   0.125  ks=<  -0.125   0.375   0.000 >, k=<  -0.121   0.362  -0.000>
      weight=   0.125  ks=<   0.375  -0.375   0.000 >, k=<   0.362  -0.362  -0.000>
      weight=   0.125  ks=<   0.375   0.125   0.000 >, k=<   0.362   0.121  -0.000>
      weight=   0.125  ks=<   0.125   0.125   0.000 >, k=<   0.121   0.121  -0.000>
      weight=   0.125  ks=<   0.125  -0.125   0.000 >, k=<   0.121  -0.121  -0.000>
      weight=   0.125  ks=<   0.375  -0.125   0.000 >, k=<   0.362  -0.121  -0.000>

 computational grids:
      density     cutoff=141.262  fft=  36x  36x 256(   162259 waves     4507 per task)
      wavefnc   1 cutoff= 90.000  fft=  36x  36x 256(    82592 waves     2294 per task)
      wavefnc   2 cutoff= 90.000  fft=  36x  36x 256(    82409 waves     2289 per task)
      wavefnc   3 cutoff= 90.000  fft=  36x  36x 256(    82409 waves     2289 per task)
      wavefnc   4 cutoff= 90.000  fft=  36x  36x 256(    82592 waves     2294 per task)
      wavefnc   5 cutoff= 90.000  fft=  36x  36x 256(    82409 waves     2289 per task)
      wavefnc   6 cutoff= 90.000  fft=  36x  36x 256(    82433 waves     2289 per task)
      wavefnc   7 cutoff= 90.000  fft=  36x  36x 256(    82433 waves     2289 per task)
      wavefnc   8 cutoff= 90.000  fft=  36x  36x 256(    82409 waves     2289 per task)

 technical parameters:
      time step=      5.80     ficticious mass=  400000.0
      tolerance=.100E-06 (energy)   0.100E-06 (density)
      maximum iterations =      3000 (   10 inner    300 outer )



= energy calculation =


          ======== bundled Grassmann lmbfgs iteration ========
     >>>  ITERATION STARTED AT Sat Mar  9 12:24:34 2013  <<<
    iter.           Energy         DeltaE       DeltaRho 
    ------------------------------------------------------
     -  10 steepest descent iterations performed
      10   -0.2827462918E+03   -0.37760E+01    0.84649E+01
     -  10 steepest descent iterations performed
      20   -0.3029373669E+03   -0.43805E+00    0.17257E+00
     -  10 steepest descent iterations performed
      30   -0.3055497549E+03   -0.12538E+00    0.26986E-01
     -  10 steepest descent iterations performed
      40   -0.3065142778E+03   -0.55581E-01    0.19158E-01
     -  10 steepest descent iterations performed
      50   -0.3069557146E+03   -0.23930E-01    0.37516E-02
     -  10 steepest descent iterations performed
      60   -0.3071979755E+03   -0.15049E-01    0.37371E-02
     -  10 steepest descent iterations performed
      70   -0.3073433770E+03   -0.84111E-02    0.93417E-03
      80   -0.3075216983E+03   -0.72470E-02    0.64757E-02
      90   -0.3075612250E+03   -0.47886E-02    0.56888E-03
     100   -0.3076133575E+03   -0.43019E-02    0.23742E-02
     110   -0.3076397740E+03   -0.20010E-02    0.82080E-03
     120   -0.3076631365E+03   -0.26533E-02    0.12335E-02
     -  10 steepest descent iterations performed
     130   -0.3076843902E+03   -0.12026E-02    0.18502E-03
     140   -0.3077027265E+03   -0.18394E-02    0.65330E-03
     -  10 steepest descent iterations performed
     150   -0.3077118779E+03   -0.54443E-03    0.16071E-03
     160   -0.3077185192E+03   -0.70876E-03    0.40849E-03
     -  10 steepest descent iterations performed
     170   -0.3077242555E+03   -0.28466E-03    0.11429E-03
     180   -0.3077279686E+03   -0.40790E-03    0.22091E-03
     -  10 steepest descent iterations performed
     190   -0.3077319909E+03   -0.24663E-03    0.13644E-03
     200   -0.3077345702E+03   -0.26768E-03    0.20759E-03
     -  10 steepest descent iterations performed
     210   -0.3077377914E+03   -0.17316E-03    0.10755E-03
     220   -0.3077398897E+03   -0.23479E-03    0.20990E-03
     -  10 steepest descent iterations performed
     230   -0.3077427400E+03   -0.18289E-03    0.13665E-03
     240   -0.3077446528E+03   -0.20425E-03    0.25551E-03
     -  10 steepest descent iterations performed
     250   -0.3077474005E+03   -0.15492E-03    0.12139E-03
     260   -0.3077492765E+03   -0.21077E-03    0.29584E-03
     -  10 steepest descent iterations performed
     270   -0.3077520565E+03   -0.18362E-03    0.16770E-03
     280   -0.3077539571E+03   -0.20231E-03    0.35506E-03
     -  10 steepest descent iterations performed
     290   -0.3077568345E+03   -0.16562E-03    0.14991E-03
     300   -0.3077588359E+03   -0.22416E-03    0.40531E-03
     -  10 steepest descent iterations performed
     310   -0.3077618934E+03   -0.20344E-03    0.20640E-03
     320   -0.3077639738E+03   -0.21603E-03    0.43766E-03
     -  10 steepest descent iterations performed
     330   -0.3077671566E+03   -0.18425E-03    0.16350E-03
     340   -0.3077692413E+03   -0.21671E-03    0.38683E-03
     -  10 steepest descent iterations performed
     350   -0.3077722722E+03   -0.19477E-03    0.18896E-03
     360   -0.3077740481E+03   -0.16577E-03    0.28980E-03
     370   -0.3077814442E+03   -0.27147E-03    0.39163E-02
     -  10 steepest descent iterations performed
     380   -0.3077844341E+03   -0.14052E-03    0.15259E-03
     390   -0.3077855897E+03   -0.11307E-03    0.95486E-04
     400   -0.3077871536E+03   -0.50070E-04    0.26000E-03
     410   -0.3077882029E+03   -0.74778E-04    0.19372E-03
     -  10 steepest descent iterations performed
     420   -0.3077892041E+03   -0.96564E-04    0.39102E-04
     -  10 steepest descent iterations performed
     430   -0.3077896900E+03   -0.27973E-04    0.21622E-04
     440   -0.3077906751E+03   -0.81053E-04    0.44669E-03
     -  10 steepest descent iterations performed
     450   -0.3077912878E+03   -0.41140E-04    0.24049E-04
     460   -0.3077916559E+03   -0.35383E-04    0.53063E-04
     470   -0.3077921924E+03   -0.48183E-04    0.20383E-03
     -  10 steepest descent iterations performed
     480   -0.3077926770E+03   -0.33832E-04    0.20573E-04
     490   -0.3077930526E+03   -0.33461E-04    0.57598E-04
     500   -0.3077933803E+03   -0.27277E-04    0.85982E-04
     510   -0.3077943345E+03   -0.14519E-03    0.11817E-02
     -  10 steepest descent iterations performed
     520   -0.3077952398E+03   -0.43849E-04    0.14577E-04
     530   -0.3077955438E+03   -0.25137E-04    0.20564E-04
     540   -0.3077958443E+03   -0.33587E-04    0.61607E-04
     -  10 steepest descent iterations performed
     550   -0.3077961400E+03   -0.25485E-04    0.21618E-04
     560   -0.3077965461E+03   -0.43548E-04    0.17599E-03
     -  10 steepest descent iterations performed
     570   -0.3077969579E+03   -0.24355E-04    0.19822E-04
     580   -0.3077971826E+03   -0.25442E-04    0.41250E-04
     -  10 steepest descent iterations performed
     590   -0.3077974839E+03   -0.25578E-04    0.27077E-04
     -  10 steepest descent iterations performed
     600   -0.3077977351E+03   -0.24366E-04    0.41182E-04
     610   -0.3077983438E+03   -0.75584E-04    0.64528E-03
     -  10 steepest descent iterations performed
     620   -0.3077990296E+03   -0.22904E-04    0.15058E-04
     630   -0.3077991603E+03   -0.12556E-04    0.15181E-04
     640   -0.3077997263E+03   -0.42837E-04    0.68321E-03
     -  10 steepest descent iterations performed
     650   -0.3078003190E+03   -0.13558E-04    0.13810E-04
     660   -0.3078004932E+03   -0.25361E-04    0.39607E-04
     -  10 steepest descent iterations performed
     670   -0.3078007263E+03   -0.19221E-04    0.34338E-04
     680   -0.3078009967E+03   -0.27665E-04    0.17056E-03
     -  10 steepest descent iterations performed
     690   -0.3078013520E+03   -0.17503E-04    0.18085E-04
     700   -0.3078014628E+03   -0.13930E-04    0.20506E-04
     710   -0.3078025671E+03   -0.67268E-04    0.36935E-02
     -  10 steepest descent iterations performed
     720   -0.3078032770E+03   -0.13108E-04    0.50432E-05
     730   -0.3078033587E+03   -0.10864E-04    0.66174E-05
     740   -0.3078034731E+03   -0.96398E-05    0.34085E-04
     750   -0.3078040222E+03   -0.12937E-03    0.12407E-02
     -  10 steepest descent iterations performed
     760   -0.3078044325E+03   -0.14511E-04    0.36334E-05
     770   -0.3078045377E+03   -0.88371E-05    0.75489E-05
     780   -0.3078046397E+03   -0.82701E-05    0.20795E-04
     790   -0.3078047902E+03   -0.11285E-04    0.82133E-04
     -  10 steepest descent iterations performed
     800   -0.3078049359E+03   -0.97882E-05    0.49894E-05
     810   -0.3078050318E+03   -0.10318E-04    0.15549E-04
     -  10 steepest descent iterations performed
     820   -0.3078051094E+03   -0.43378E-05    0.36976E-05
     830   -0.3078052091E+03   -0.81337E-05    0.39010E-04
     -  10 steepest descent iterations performed
     840   -0.3078053115E+03   -0.61089E-05    0.32038E-05
     850   -0.3078053685E+03   -0.64151E-05    0.11484E-04
     -  10 steepest descent iterations performed
     860   -0.3078054346E+03   -0.38043E-05    0.28876E-05
     870   -0.3078055087E+03   -0.62247E-05    0.26019E-04
     -  10 steepest descent iterations performed
     880   -0.3078055924E+03   -0.50412E-05    0.23893E-05
     890   -0.3078056347E+03   -0.47854E-05    0.79626E-05
     900   -0.3078058397E+03   -0.22344E-04    0.28011E-03
     -  10 steepest descent iterations performed
     910   -0.3078060045E+03   -0.31982E-05    0.17241E-05
     920   -0.3078060325E+03   -0.21930E-05    0.11274E-05
     930   -0.3078060585E+03   -0.25509E-05    0.43288E-05
     -  10 steepest descent iterations performed
     940   -0.3078060925E+03   -0.24759E-05    0.20403E-05
     950   -0.3078061264E+03   -0.39932E-05    0.11101E-04
     -  10 steepest descent iterations performed
     960   -0.3078061623E+03   -0.23070E-05    0.10385E-05
     970   -0.3078061848E+03   -0.13834E-05    0.34894E-05
     980   -0.3078062426E+03   -0.69558E-05    0.45289E-04
     -  10 steepest descent iterations performed