----------------------------------------
Begin Torque Prologue (Mon Mar 18 07:19:08 2013)
Job ID:           389262.taubm1.campuscluster.illinois.edu
Username:         davis68
Group:            npre_rizwan
Job Name:         U6O-100-ctr
Limits:           ncpus=1,neednodes=24:ppn=12,nodes=24:ppn=12,walltime=12:00:00
Job Queue:        cse
Account:          NPRE
Nodes:            taub373 taub389 taub441 taub442 taub443 taub444 taub445 taub454 taub456 taub461 taub463 taub473 taub474 taub476 taub477 taub481 taub484 taub488 taub489 taub491 taub497 taub500 taub503 taub505
End Torque Prologue
----------------------------------------
 argument  1 = ./U6O-100-ctr.nw



============================== echo of input deck ==============================
title "Gamma-uranium (100) slab relaxation"
echo

permanent_dir ./perm
scratch_dir   ./scratch

start U6O-100-ctr

memory 2500 mb

nwpw
  # Real-space discretization
  simulation_cell
    ngrid 36 36 256
  end

  # Spin multiplicity---quenched to 1 in the solid state
  mult 3

  # Band, k-point sampling, and parallelism
  monkhorst-pack 4 4 1
  np_dimensions 8 12 8
  mapping 2

  # Periodicity considerations
  ewald_rcut 3.0
  ewald_ncut 8

  # Simulation parameters
  #restricted    # DFT||ODFT||RESTRICTED||UNRESTRICTED
  xc pbe96
  cutoff 90.0
  loop 10 300
end
set nwpw:minimizer      2
set nwpw:lcao_skip      .true.
set nwpw:kbpp_ray       .true.
set nwpw:cif_filename U6-pbe96.opt

#       (100) gamma-uranium surface with surface displacements:	29.7%	-15.3%	and O displacement of	0.000	Å
geometry	center	noautosym	noautoz	print
	system	crystal
	lat_a	3.44
	lat_b	3.44
	lat_c	25.32
	alpha	90.0d0
	beta	90.0d0
	gamma	90.0d0
	end
	U1	0.50000	0.50000	0.69401
	U2	0.00000	0.00000	0.64625
	U3	0.50000	0.50000	0.56793
	U4	0.00000	0.00000	0.50000
	U5	0.50000	0.50000	0.42168
	U6	0.00000	0.00000	0.37392
	O1	0.00000	0.00000	0.69401
end
task band energy

nwpw
  simulation_cell
    ngrid 64 64 512
  end
end

#       (100) gamma-uranium surface with surface displacements:	29.7%	-15.3%	and O displacement of	0.000	Å
geometry	center	noautosym	noautoz	print
	system	crystal
	lat_a	3.44
	lat_b	3.44
	lat_c	25.32
	alpha	90.0d0
	beta	90.0d0
	gamma	90.0d0
	end
	U1	0.50000	0.50000	0.69401
	U2	0.00000	0.00000	0.64625
	U3	0.50000	0.50000	0.56793
	U4	0.00000	0.00000	0.50000
	U5	0.50000	0.50000	0.42168
	U6	0.00000	0.00000	0.37392
	O1	0.00000	0.00000	0.69401
end
task band energy

#       (100) gamma-uranium surface with surface displacements:	29.7%	-15.3%	and O displacement of	0.250	Å
geometry	center	noautosym	noautoz	print
	system	crystal
	lat_a	3.44
	lat_b	3.44
	lat_c	25.32
	alpha	90.0d0
	beta	90.0d0
	gamma	90.0d0
	end
	U1	0.50000	0.50000	0.69401
	U2	0.00000	0.00000	0.64625
	U3	0.50000	0.50000	0.56793
	U4	0.00000	0.00000	0.50000
	U5	0.50000	0.50000	0.42168
	U6	0.00000	0.00000	0.37392
	O1	0.00000	0.00000	0.70388
end
task band energy

#       (100) gamma-uranium surface with surface displacements:	29.7%	-15.3%	and O displacement of	0.500	Å
geometry	center	noautosym	noautoz	print
	system	crystal
	lat_a	3.44
	lat_b	3.44
	lat_c	25.32
	alpha	90.0d0
	beta	90.0d0
	gamma	90.0d0
	end
	U1	0.50000	0.50000	0.69401
	U2	0.00000	0.00000	0.64625
	U3	0.50000	0.50000	0.56793
	U4	0.00000	0.00000	0.50000
	U5	0.50000	0.50000	0.42168
	U6	0.00000	0.00000	0.37392
	O1	0.00000	0.00000	0.71376
end
task band energy

#       (100) gamma-uranium surface with surface displacements:	29.7%	-15.3%	and O displacement of	0.750	Å
geometry	center	noautosym	noautoz	print
	system	crystal
	lat_a	3.44
	lat_b	3.44
	lat_c	25.32
	alpha	90.0d0
	beta	90.0d0
	gamma	90.0d0
	end
	U1	0.50000	0.50000	0.69401
	U2	0.00000	0.00000	0.64625
	U3	0.50000	0.50000	0.56793
	U4	0.00000	0.00000	0.50000
	U5	0.50000	0.50000	0.42168
	U6	0.00000	0.00000	0.37392
	O1	0.00000	0.00000	0.72363
end
task band energy

#       (100) gamma-uranium surface with surface displacements:	29.7%	-15.3%	and O displacement of	1.000	Å
geometry	center	noautosym	noautoz	print
	system	crystal
	lat_a	3.44
	lat_b	3.44
	lat_c	25.32
	alpha	90.0d0
	beta	90.0d0
	gamma	90.0d0
	end
	U1	0.50000	0.50000	0.69401
	U2	0.00000	0.00000	0.64625
	U3	0.50000	0.50000	0.56793
	U4	0.00000	0.00000	0.50000
	U5	0.50000	0.50000	0.42168
	U6	0.00000	0.00000	0.37392
	O1	0.00000	0.00000	0.73350
end
task band energy

#       (100) gamma-uranium surface with surface displacements:	29.7%	-15.3%	and O displacement of	1.250	Å
geometry	center	noautosym	noautoz	print
	system	crystal
	lat_a	3.44
	lat_b	3.44
	lat_c	25.32
	alpha	90.0d0
	beta	90.0d0
	gamma	90.0d0
	end
	U1	0.50000	0.50000	0.69401
	U2	0.00000	0.00000	0.64625
	U3	0.50000	0.50000	0.56793
	U4	0.00000	0.00000	0.50000
	U5	0.50000	0.50000	0.42168
	U6	0.00000	0.00000	0.37392
	O1	0.00000	0.00000	0.74338
end
task band energy

#       (100) gamma-uranium surface with surface displacements:	29.7%	-15.3%	and O displacement of	1.500	Å
geometry	center	noautosym	noautoz	print
	system	crystal
	lat_a	3.44
	lat_b	3.44
	lat_c	25.32
	alpha	90.0d0
	beta	90.0d0
	gamma	90.0d0
	end
	U1	0.50000	0.50000	0.69401
	U2	0.00000	0.00000	0.64625
	U3	0.50000	0.50000	0.56793
	U4	0.00000	0.00000	0.50000
	U5	0.50000	0.50000	0.42168
	U6	0.00000	0.00000	0.37392
	O1	0.00000	0.00000	0.75325
end
task band energy

# A.M.D.G.
================================================================================


                                         
                                         


             Northwest Computational Chemistry Package (NWChem) 6.1.1
             --------------------------------------------------------


                    Environmental Molecular Sciences Laboratory
                       Pacific Northwest National Laboratory
                                Richland, WA 99352

                              Copyright (c) 1994-2012
                       Pacific Northwest National Laboratory
                            Battelle Memorial Institute

             NWChem is an open-source computational chemistry package
                        distributed under the terms of the
                      Educational Community License (ECL) 2.0
             A copy of the license is included with this distribution
                              in the LICENSE.TXT file

                                  ACKNOWLEDGMENT
                                  --------------

            This software and its documentation were developed at the
            EMSL at Pacific Northwest National Laboratory, a multiprogram
            national laboratory, operated for the U.S. Department of Energy
            by Battelle under Contract Number DE-AC05-76RL01830. Support
            for this work was provided by the Department of Energy Office
            of Biological and Environmental Research, Office of Basic
            Energy Sciences, and the Office of Advanced Scientific Computing.


           Job information
           ---------------

    hostname        = taub505
    program         = /home/davis68/bin/nwchem-dev
    date            = Mon Mar 18 07:19:13 2013

    compiled        = Wed_Oct_03_09:41:00_2012
    source          = /home/davis68/nwchem/nwchem-src-2012-Aug-27/
    nwchem branch   = Development
    nwchem revision = 22805
    ga revision     = 10079
    input           = ./U6O-100-ctr.nw
    prefix          = U6O-100-ctr.
    data base       = ./perm/U6O-100-ctr.db
    status          = startup
    nproc           =      288
    time left       =     -1s



           Memory information
           ------------------

    heap     =   81920001 doubles =    625.0 Mbytes
    stack    =   81920001 doubles =    625.0 Mbytes
    global   =  163840000 doubles =   1250.0 Mbytes (distinct from heap & stack)
    total    =  327680002 doubles =   2500.0 Mbytes
    verify   = yes
    hardfail = no 


           Directory information
           ---------------------

  0 permanent = ./perm
  0 scratch   = ./scratch




                                NWChem Input Module
                                -------------------


                        Gamma-uranium (100) slab relaxation
                        -----------------------------------

  !!!!!!!!!  geom_3d NEEDS TESTING !!!!!!!!!! 


                             Geometry "geometry" -> ""
                             -------------------------

 Output coordinates in angstroms (scale by  1.889725989 to convert to a.u.)

  No.       Tag          Charge          X              Y              Z
 ---- ---------------- ---------- -------------- -------------- --------------
    1 U1                  92.0000     1.72000000     1.72000000    17.57233320
    2 U2                  92.0000     0.00000000     0.00000000    16.36305000
    3 U3                  92.0000     1.72000000     1.72000000    14.37998760
    4 U4                  92.0000     0.00000000     0.00000000    12.66000000
    5 U5                  92.0000     1.72000000     1.72000000    10.67693760
    6 U6                  92.0000     0.00000000     0.00000000     9.46765440
    7 O1                   8.0000     0.00000000     0.00000000    17.57233320

      Lattice Parameters 
      ------------------ 

      lattice vectors in angstroms (scale by  1.889725989 to convert to a.u.)

      a1=<   3.440   0.000   0.000 >
      a2=<   0.000   3.440   0.000 >
      a3=<   0.000   0.000  25.320 >
      a=       3.440 b=      3.440 c=      25.320
      alpha=  90.000 beta=  90.000 gamma=  90.000
      omega=   299.6

      reciprocal lattice vectors in a.u.

      b1=<   0.967   0.000  -0.000 >
      b2=<  -0.000   0.967  -0.000 >
      b3=<   0.000   0.000   0.131 >

      Atomic Mass 
      ----------- 

      U1               238.050800
      U2               238.050800
      U3               238.050800
      U4               238.050800
      U5               238.050800
      U6               238.050800
      O1                15.994910


 ==============================================================================
                                internuclear distances
 ------------------------------------------------------------------------------
       center one      |      center two      | atomic units |  angstroms
 ------------------------------------------------------------------------------
    2 U2               |   1 U1               |     5.13337  |     2.71646
    3 U3               |   1 U1               |     6.03266  |     3.19235
    3 U3               |   2 U2               |     5.93065  |     3.13837
    4 U4               |   2 U2               |     6.99775  |     3.70305
    4 U4               |   3 U3               |     5.62972  |     2.97912
    5 U5               |   3 U3               |     6.99775  |     3.70305
    5 U5               |   4 U4               |     5.93065  |     3.13837
    6 U6               |   4 U4               |     6.03266  |     3.19235
    6 U6               |   5 U5               |     5.13337  |     2.71646
    7 O1               |   1 U1               |     4.59666  |     2.43245
    7 O1               |   2 U2               |     2.28521  |     1.20928
 ------------------------------------------------------------------------------
                         number of included internuclear distances:         11
 ==============================================================================



 ==============================================================================
                                 internuclear angles
 ------------------------------------------------------------------------------
        center 1       |       center 2       |       center 3       |  degrees
 ------------------------------------------------------------------------------
    1 U1               |   2 U2               |   3 U3               |    65.62
    1 U1               |   7 O1               |   2 U2               |    90.00
    3 U3               |   1 U1               |   7 O1               |    90.00
    1 U1               |   2 U2               |   3 U3               |    65.62
    1 U1               |   2 U2               |   4 U4               |   116.43
    2 U2               |   7 O1               |   1 U1               |    90.00
    2 U2               |   3 U3               |   4 U4               |    74.45
    3 U3               |   2 U2               |   7 O1               |   129.19
    4 U4               |   2 U2               |   7 O1               |   180.00
    3 U3               |   2 U2               |   1 U1               |    65.62
    1 U1               |   3 U3               |   4 U4               |   125.26
    1 U1               |   3 U3               |   5 U5               |   180.00
    2 U2               |   3 U3               |   4 U4               |    74.45
    2 U2               |   3 U3               |   5 U5               |   129.19
    3 U3               |   4 U4               |   5 U5               |    74.45
    4 U4               |   3 U3               |   2 U2               |    74.45
    2 U2               |   4 U4               |   5 U5               |   129.19
    2 U2               |   4 U4               |   6 U6               |   180.00
    3 U3               |   4 U4               |   5 U5               |    74.45
    3 U3               |   4 U4               |   6 U6               |   125.26
    4 U4               |   5 U5               |   6 U6               |    65.62
    5 U5               |   4 U4               |   3 U3               |    74.45
    3 U3               |   5 U5               |   6 U6               |   116.43
    4 U4               |   5 U5               |   6 U6               |    65.62
    6 U6               |   5 U5               |   4 U4               |    65.62
    1 U1               |   7 O1               |   2 U2               |    90.00
 ------------------------------------------------------------------------------
                            number of included internuclear angles:         26
 ==============================================================================



          **********************************************************
          *                                                        *
          *                   NWPW BAND Calculation                *
          *                                                        *
          *  [(bundled Grassman/Stiefel manifold implementation)]  *
          *                                                        *
          *         [ NorthWest Chemistry implementation ]         *
          *                                                        *
          *                version #1.10   01/31/03                *
          *                                                        *
          *  A pseudopotential plane-wave band structure program   *
          *  with Brillouin zone sampling for optimizing crystals, *
          *  slabs, and polymers.  Developed by Eric J. Bylaska    *
          *  , Edoardo Apra, and Patrick Nichols.                  *
          *                                                        *
          **********************************************************
     >>>  JOB STARTED       AT Mon Mar 18 07:19:13 2013  <<<
          ================ input data ========================
  library name resolved from: environment
  NWCHEM_NWPW_LIBRARY set to: </home/davis68/nwchem/nwchem-6.1/src/nwpw/libraryps/>
 Generating 1d pseudopotential for U   

 Generated formatted_filename: ./perm/U.cpp
 - Spline fitted, nray=24215 -
  library name resolved from: environment
  NWCHEM_NWPW_LIBRARY set to: </home/davis68/nwchem/nwchem-6.1/src/nwpw/libraryps/>
 Generating 1d pseudopotential for O   

 Generated formatted_filename: ./perm/O.cpp
 - Spline fitted, nray=24215 -
 random planewave guess, initial psi:U6O-100-ctr.movecs                                
 -   spin, nalpha, nbeta:                    2                   46                   44

 input psi filename:./perm/U6O-100-ctr.movecs
Warning - Orthogonalization performed, spin,zone: 1   1
        - error(before)=  0.500593E+01 (  0.409941E+02)
        - error(after)=   0.000000E+00 (  0.460000E+02)
Warning - Orthogonalization performed, spin,zone: 2   1
        - error(before)=  0.479084E+01 (  0.392092E+02)
        - error(after)=   0.710543E-14 (  0.440000E+02)
Warning - Orthogonalization performed, spin,zone: 1   2
        - error(before)=  0.500973E+01 (  0.409903E+02)
        - error(after)=   0.000000E+00 (  0.460000E+02)
Warning - Orthogonalization performed, spin,zone: 2   2
        - error(before)=  0.479361E+01 (  0.392064E+02)
        - error(after)=   0.710543E-14 (  0.440000E+02)
Warning - Orthogonalization performed, spin,zone: 1   3
        - error(before)=  0.501130E+01 (  0.409887E+02)
        - error(after)=   0.000000E+00 (  0.460000E+02)
Warning - Orthogonalization performed, spin,zone: 2   3
        - error(before)=  0.479422E+01 (  0.392058E+02)
        - error(after)=   0.710543E-14 (  0.440000E+02)
Warning - Orthogonalization performed, spin,zone: 1   4
        - error(before)=  0.500648E+01 (  0.409935E+02)
        - error(after)=   0.000000E+00 (  0.460000E+02)
Warning - Orthogonalization performed, spin,zone: 2   4
        - error(before)=  0.478959E+01 (  0.392104E+02)
        - error(after)=   0.710543E-14 (  0.440000E+02)
Warning - Orthogonalization performed, spin,zone: 1   5
        - error(before)=  0.500921E+01 (  0.409908E+02)
        - error(after)=   0.710543E-14 (  0.460000E+02)
Warning - Orthogonalization performed, spin,zone: 2   5
        - error(before)=  0.479450E+01 (  0.392055E+02)
        - error(after)=   0.000000E+00 (  0.440000E+02)
Warning - Orthogonalization performed, spin,zone: 1   6
        - error(before)=  0.500967E+01 (  0.409903E+02)
        - error(after)=   0.000000E+00 (  0.460000E+02)
Warning - Orthogonalization performed, spin,zone: 2   6
        - error(before)=  0.479615E+01 (  0.392038E+02)
        - error(after)=   0.710543E-14 (  0.440000E+02)
Warning - Orthogonalization performed, spin,zone: 1   7
        - error(before)=  0.500950E+01 (  0.409905E+02)
        - error(after)=   0.142109E-13 (  0.460000E+02)
Warning - Orthogonalization performed, spin,zone: 2   7
        - error(before)=  0.479403E+01 (  0.392060E+02)
        - error(after)=   0.710543E-14 (  0.440000E+02)
Warning - Orthogonalization performed, spin,zone: 1   8
        - error(before)=  0.500808E+01 (  0.409919E+02)
        - error(after)=   0.710543E-14 (  0.460000E+02)
Warning - Orthogonalization performed, spin,zone: 2   8
        - error(before)=  0.479366E+01 (  0.392063E+02)
        - error(after)=   0.710543E-14 (  0.440000E+02)

 number of processors used:             288
 processor grid           :  36 x   1 x   8
 parallel mapping         :     2d  hilbert

 options:
      boundary conditions  = periodic    (version3)
      electron spin        = unrestricted
      exchange-correlation = PBE96 (White and Bird) parameterization

 elements involved in the cluster:
      1: U     core charge:14.0  lmax=3
             comment    : Parameterized (J.Chem. Phys. vol 128, 124507 (2008)) Troullier-Martins psp
             pseudpotential type            :   0
             highest angular component      :   3
             local potential used           :   0
             number of non-local projections:  15
             cutoff =   1.421   1.602   2.400   1.250
      2: O     core charge: 6.0  lmax=2
             comment    : Parameterized (Chem.Phys.Lett., vol 322, page 447) Hamman psp
             pseudpotential type            :   0
             highest angular component      :   2
             local potential used           :   2
             number of non-local projections:   4
             cutoff =   0.700   0.700   0.700

 total charge:   0.000

 atomic composition:
     U   :  6     O   :  1

 number of electrons: spin up=   46.00  spin down=   44.00 (fourier space)
 number of orbitals:  spin up=      46  spin down=      44 (fourier space)

 supercell:
      lattice:    a1=<   6.501   0.000   0.000 >
                  a2=<   0.000   6.501   0.000 >
                  a3=<   0.000   0.000  47.848 >
      reciprocal: b1=<   0.967   0.000  -0.000 >
                  b2=<  -0.000   0.967  -0.000 >
                  b3=<   0.000   0.000   0.131 >

      lattice:    a=   6.501    b=   6.501     c=  47.848
              alpha=  90.000 beta=  90.000 gamma=  90.000
      volume :     2022.0
      ewald summation: cut radius=    3.00  and  8
                        madelung=-4.59469223

 brillouin zone:
      number of zone points:     8
      weight=   0.125  ks=<   0.375   0.375   0.000 >, k=<   0.362   0.362  -0.000>
      weight=   0.125  ks=<   0.125   0.375   0.000 >, k=<   0.121   0.362  -0.000>
      weight=   0.125  ks=<  -0.125   0.375   0.000 >, k=<  -0.121   0.362  -0.000>
      weight=   0.125  ks=<   0.375  -0.375   0.000 >, k=<   0.362  -0.362  -0.000>
      weight=   0.125  ks=<   0.375   0.125   0.000 >, k=<   0.362   0.121  -0.000>
      weight=   0.125  ks=<   0.125   0.125   0.000 >, k=<   0.121   0.121  -0.000>
      weight=   0.125  ks=<   0.125  -0.125   0.000 >, k=<   0.121  -0.121  -0.000>
      weight=   0.125  ks=<   0.375  -0.125   0.000 >, k=<   0.362  -0.121  -0.000>

 computational grids:
      density     cutoff=141.262  fft=  36x  36x 256(   162259 waves     4507 per task)
      wavefnc   1 cutoff= 90.000  fft=  36x  36x 256(    82592 waves     2294 per task)
      wavefnc   2 cutoff= 90.000  fft=  36x  36x 256(    82409 waves     2289 per task)
      wavefnc   3 cutoff= 90.000  fft=  36x  36x 256(    82409 waves     2289 per task)
      wavefnc   4 cutoff= 90.000  fft=  36x  36x 256(    82592 waves     2294 per task)
      wavefnc   5 cutoff= 90.000  fft=  36x  36x 256(    82409 waves     2289 per task)
      wavefnc   6 cutoff= 90.000  fft=  36x  36x 256(    82433 waves     2289 per task)
      wavefnc   7 cutoff= 90.000  fft=  36x  36x 256(    82433 waves     2289 per task)
      wavefnc   8 cutoff= 90.000  fft=  36x  36x 256(    82409 waves     2289 per task)

 technical parameters:
      time step=      5.80     ficticious mass=  400000.0
      tolerance=.100E-06 (energy)   0.100E-06 (density)
      maximum iterations =      3000 (   10 inner    300 outer )



= energy calculation =


          ======== bundled Grassmann lmbfgs iteration ========
     >>>  ITERATION STARTED AT Mon Mar 18 07:19:55 2013  <<<
    iter.           Energy         DeltaE       DeltaRho 
    ------------------------------------------------------
     -  10 steepest descent iterations performed
      10   -0.2961792207E+03   -0.42533E+01    0.10099E+02
     -  10 steepest descent iterations performed
      20   -0.3182105020E+03   -0.49435E+00    0.18608E+00
     -  10 steepest descent iterations performed
      30   -0.3208983235E+03   -0.11423E+00    0.23260E-01
     -  10 steepest descent iterations performed
      40   -0.3217887527E+03   -0.50643E-01    0.13849E-01
     -  10 steepest descent iterations performed
      50   -0.3221959621E+03   -0.23597E-01    0.28030E-02
     -  10 steepest descent iterations performed
      60   -0.3224222010E+03   -0.13874E-01    0.28476E-02
     -  10 steepest descent iterations performed
      70   -0.3225603696E+03   -0.85030E-02    0.91413E-03
      80   -0.3227390498E+03   -0.72487E-02    0.65857E-02
      90   -0.3227796274E+03   -0.50017E-02    0.58220E-03
     100   -0.3228324358E+03   -0.42711E-02    0.20773E-02
     110   -0.3228588198E+03   -0.19149E-02    0.75671E-03
     120   -0.3228818416E+03   -0.28209E-02    0.12594E-02
     -  10 steepest descent iterations performed
     130   -0.3229028730E+03   -0.11172E-02    0.25554E-03
     140   -0.3229218011E+03   -0.20483E-02    0.12998E-02
     -  10 steepest descent iterations performed
     150   -0.3229324390E+03   -0.68718E-03    0.26203E-03
     160   -0.3229412613E+03   -0.10499E-02    0.10082E-02
     -  10 steepest descent iterations performed
     170   -0.3229495375E+03   -0.39062E-03    0.19383E-03
     180   -0.3229550701E+03   -0.59371E-03    0.58715E-03
     -  10 steepest descent iterations performed
     190   -0.3229612414E+03   -0.39511E-03    0.24310E-03
     200   -0.3229653498E+03   -0.42923E-03    0.49184E-03
     -  10 steepest descent iterations performed
     210   -0.3229702259E+03   -0.23674E-03    0.14072E-03
     220   -0.3229730660E+03   -0.28159E-03    0.28644E-03
     -  10 steepest descent iterations performed
     230   -0.3229765887E+03   -0.22707E-03    0.15245E-03
     240   -0.3229787209E+03   -0.21231E-03    0.23283E-03
     250   -0.3229864500E+03   -0.30620E-03    0.34943E-02
     -  10 steepest descent iterations performed
     260   -0.3229893154E+03   -0.13719E-03    0.55220E-04
     270   -0.3229901896E+03   -0.96069E-04    0.42052E-04
     280   -0.3229917238E+03   -0.96359E-04    0.22215E-03
     -  10 steepest descent iterations performed
     290   -0.3229929720E+03   -0.60021E-04    0.26872E-04
     300   -0.3229937778E+03   -0.11060E-03    0.85070E-04
     -  10 steepest descent iterations performed
     310   -0.3229946679E+03   -0.75634E-04    0.35816E-04
     320   -0.3229954181E+03   -0.56279E-04    0.11777E-03
     330   -0.3229981381E+03   -0.19265E-03    0.21292E-02
     -  10 steepest descent iterations performed
     340   -0.3230002046E+03   -0.73278E-04    0.23420E-04
     350   -0.3230007134E+03   -0.42332E-04    0.22889E-04
     360   -0.3230011918E+03   -0.50134E-04    0.59925E-04
     -  10 steepest descent iterations performed
     370   -0.3230017963E+03   -0.45241E-04    0.29694E-04
     380   -0.3230022737E+03   -0.44963E-04    0.83474E-04
     390   -0.3230032614E+03   -0.84703E-04    0.50922E-03
     -  10 steepest descent iterations performed
     400   -0.3230042684E+03   -0.44819E-04    0.13547E-04
     410   -0.3230045677E+03   -0.29003E-04    0.17857E-04
     420   -0.3230048406E+03   -0.31472E-04    0.46059E-04
     -  10 steepest descent iterations performed
     430   -0.3230052457E+03   -0.30585E-04    0.21915E-04
     440   -0.3230055839E+03   -0.34705E-04    0.75949E-04
     -  10 steepest descent iterations performed
     450   -0.3230060282E+03   -0.39682E-04    0.24999E-04
     -  10 steepest descent iterations performed
     460   -0.3230063250E+03   -0.24723E-04    0.30640E-04
     470   -0.3230072818E+03   -0.15321E-03    0.98487E-03
     -  10 steepest descent iterations performed
     480   -0.3230083559E+03   -0.41627E-04    0.92886E-05
     490   -0.3230085789E+03   -0.30257E-04    0.21483E-04
     500   -0.3230095478E+03   -0.93156E-04    0.77367E-03
     -  10 steepest descent iterations performed
     510   -0.3230108469E+03   -0.32909E-04    0.33218E-04
     520   -0.3230112998E+03   -0.63796E-04    0.67740E-04
     -  10 steepest descent iterations performed
     530   -0.3230120715E+03   -0.82127E-04    0.91114E-04
     -  10 steepest descent iterations performed
     540   -0.3230127699E+03   -0.47840E-04    0.57510E-04
     550   -0.3230156854E+03   -0.36765E-03    0.31342E-02
     -  10 steepest descent iterations performed
     560   -0.3230190119E+03   -0.11066E-03    0.29584E-04
     570   -0.3230196763E+03   -0.77473E-04    0.31986E-04
     580   -0.3230205613E+03   -0.11638E-03    0.13837E-03
     -  10 steepest descent iterations performed
     590   -0.3230214941E+03   -0.40336E-04    0.19403E-04
     600   -0.3230220217E+03   -0.51750E-04    0.58989E-04
     -  10 steepest descent iterations performed
     610   -0.3230226186E+03   -0.56413E-04    0.26010E-04
     -  10 steepest descent iterations performed
     620   -0.3230229796E+03   -0.36849E-04    0.24952E-04
     630   -0.3230238098E+03   -0.46394E-04    0.36399E-03
     -  10 steepest descent iterations performed
     640   -0.3230243568E+03   -0.18646E-04    0.59820E-05
     650   -0.3230244629E+03   -0.10993E-04    0.48416E-05
     660   -0.3230246233E+03   -0.27973E-04    0.40420E-04
     -  10 steepest descent iterations performed
     670   -0.3230248027E+03   -0.68278E-05    0.40696E-05
     680   -0.3230249298E+03   -0.15232E-04    0.28107E-04
     -  10 steepest descent iterations performed
     690   -0.3230250755E+03   -0.13848E-04    0.79778E-05
     700   -0.3230251516E+03   -0.90616E-05    0.12005E-04
     710   -0.3230256046E+03   -0.46608E-04    0.72652E-03
     -  10 steepest descent iterations performed
     720   -0.3230259065E+03   -0.33699E-05    0.16937E-05
     730   -0.3230259530E+03   -0.38589E-05    0.31526E-05
     -  10 steepest descent iterations performed
     740   -0.3230259994E+03   -0.60303E-05    0.58738E-05
     -  10 steepest descent iterations performed
     750   -0.3230260400E+03   -0.19855E-05    0.21891E-05
     760   -0.3230261937E+03   -0.16828E-04    0.19432E-03
     -  10 steepest descent iterations performed
     770   -0.3230263290E+03   -0.27346E-05    0.91925E-06
     780   -0.3230263497E+03   -0.25819E-05    0.18517E-05
     790   -0.3230264206E+03   -0.87208E-05    0.51415E-04
     -  10 steepest descent iterations performed
     800   -0.3230264932E+03   -0.24943E-05    0.17245E-05
     810   -0.3230265107E+03   -0.12604E-05    0.16566E-05
     820   -0.3230265697E+03   -0.81949E-05    0.49536E-04
     -  10 steepest descent iterations performed
     830   -0.3230266315E+03   -0.18295E-05    0.66634E-06
     840   -0.3230266509E+03   -0.28254E-05    0.30807E-05
     -  10 steepest descent iterations performed
     850   -0.3230266750E+03   -0.21300E-05    0.22930E-05
     860   -0.3230267127E+03   -0.35726E-05    0.23001E-04
     -  10 steepest descent iterations performed
     870   -0.3230267553E+03   -0.21643E-05    0.10848E-05
     880   -0.3230267686E+03   -0.11338E-05    0.14689E-05
     890   -0.3230268092E+03   -0.52784E-05    0.33212E-04
     -  10 steepest descent iterations performed
     900   -0.3230268530E+03   -0.11517E-05    0.73251E-06
     910   -0.3230268687E+03   -0.24301E-05    0.26499E-05
     -  10 steepest descent iterations performed