----------------------------------------
Begin Torque Prologue (Thu Apr  4 20:18:34 2013)
Job ID:           389273.taubm1.campuscluster.illinois.edu
Username:         davis68
Group:            npre_rizwan
Job Name:         U6O-211-ctr1
Limits:           ncpus=1,neednodes=24:ppn=12,nodes=24:ppn=12,walltime=18:00:00
Job Queue:        cse
Account:          NPRE
Nodes:            taub266 taub267 taub272 taub274 taub275 taub277 taub280 taub281 taub282 taub283 taub318 taub322 taub327 taub337 taub338 taub345 taub404 taub405 taub434 taub439 taub440 taub441 taub482 taub484
End Torque Prologue
----------------------------------------
 argument  1 = ./U6O-211-ctr1.nw



============================== echo of input deck ==============================
title "Gamma-uranium (100) slab relaxation"
echo

permanent_dir ./perm
scratch_dir   ./scratch

start U6O-211-ctr1

memory 2500 mb

nwpw
  # Real-space discretization
  simulation_cell
    ngrid 32 48 240
  end

  # Spin multiplicity---quenched to 1 in the solid state
  mult 3

  # Band, k-point sampling, and parallelism
  monkhorst-pack 4 4 1
  np_dimensions 8 12 8
  mapping 2

  # Periodicity considerations
  ewald_rcut 3.0
  ewald_ncut 8

  # Simulation parameters
  #restricted    # DFT||ODFT||RESTRICTED||UNRESTRICTED
  xc pbe96
  cutoff 90.0
  loop 10 300
end
set nwpw:minimizer      2
set nwpw:lcao_skip      .true.
set nwpw:kbpp_ray       .true.

#       (211) gamma-uranium surface with surface displacements:	43.40%	-18.50%	and O displacement of	0.000	Å
geometry	center	noautosym	noautoz	print
	system	crystal
	lat_a	2.97913
	lat_b	4.86259
	lat_c	23.42762
	alpha	90.0d0
	beta	90.0d0
	gamma	90.0d0
	end
	U1	0.66667	0.50000	0.66494
	U2	0.33333	0.00000	0.63100
	U3	0.00000	0.50000	0.55996
	U4	0.66667	0.00000	0.50000
	U5	0.33333	0.50000	0.42895
	U6	0.00000	0.00000	0.39502
	O1	0.66667	0.00000	0.66494
end
task band energy

nwpw
  simulation_cell
    ngrid 64 96 420
  end
end

#       (211) gamma-uranium surface with surface displacements:	43.40%	-18.50%	and O displacement of	0.000	Å
geometry	center	noautosym	noautoz	print
	system	crystal
	lat_a	2.97913
	lat_b	4.86259
	lat_c	23.42762
	alpha	90.0d0
	beta	90.0d0
	gamma	90.0d0
	end
	U1	0.66667	0.50000	0.66494
	U2	0.33333	0.00000	0.63100
	U3	0.00000	0.50000	0.55996
	U4	0.66667	0.00000	0.50000
	U5	0.33333	0.50000	0.42895
	U6	0.00000	0.00000	0.39502
	O1	0.66667	0.00000	0.66494
end
task band energy


#       (211) gamma-uranium surface with surface displacements:	43.40%	-18.50%	and O displacement of	0.250	Å
geometry	center	noautosym	noautoz	print
	system	crystal
	lat_a	2.97913
	lat_b	4.86259
	lat_c	23.42762
	alpha	90.0d0
	beta	90.0d0
	gamma	90.0d0
	end
	U1	0.66667	0.50000	0.66494
	U2	0.33333	0.00000	0.63100
	U3	0.00000	0.50000	0.55996
	U4	0.66667	0.00000	0.50000
	U5	0.33333	0.50000	0.42895
	U6	0.00000	0.00000	0.39502
	O1	0.66667	0.00000	0.67561
end
task band energy


#       (211) gamma-uranium surface with surface displacements:	43.40%	-18.50%	and O displacement of	0.500	Å
geometry	center	noautosym	noautoz	print
	system	crystal
	lat_a	2.97913
	lat_b	4.86259
	lat_c	23.42762
	alpha	90.0d0
	beta	90.0d0
	gamma	90.0d0
	end
	U1	0.66667	0.50000	0.66494
	U2	0.33333	0.00000	0.63100
	U3	0.00000	0.50000	0.55996
	U4	0.66667	0.00000	0.50000
	U5	0.33333	0.50000	0.42895
	U6	0.00000	0.00000	0.39502
	O1	0.66667	0.00000	0.68628
end
task band energy


#       (211) gamma-uranium surface with surface displacements:	43.40%	-18.50%	and O displacement of	0.750	Å
geometry	center	noautosym	noautoz	print
	system	crystal
	lat_a	2.97913
	lat_b	4.86259
	lat_c	23.42762
	alpha	90.0d0
	beta	90.0d0
	gamma	90.0d0
	end
	U1	0.66667	0.50000	0.66494
	U2	0.33333	0.00000	0.63100
	U3	0.00000	0.50000	0.55996
	U4	0.66667	0.00000	0.50000
	U5	0.33333	0.50000	0.42895
	U6	0.00000	0.00000	0.39502
	O1	0.66667	0.00000	0.69695
end
task band energy


#       (211) gamma-uranium surface with surface displacements:	43.40%	-18.50%	and O displacement of	1.000	Å
geometry	center	noautosym	noautoz	print
	system	crystal
	lat_a	2.97913
	lat_b	4.86259
	lat_c	23.42762
	alpha	90.0d0
	beta	90.0d0
	gamma	90.0d0
	end
	U1	0.66667	0.50000	0.66494
	U2	0.33333	0.00000	0.63100
	U3	0.00000	0.50000	0.55996
	U4	0.66667	0.00000	0.50000
	U5	0.33333	0.50000	0.42895
	U6	0.00000	0.00000	0.39502
	O1	0.66667	0.00000	0.70762
end
task band energy


#       (211) gamma-uranium surface with surface displacements:	43.40%	-18.50%	and O displacement of	1.250	Å
geometry	center	noautosym	noautoz	print
	system	crystal
	lat_a	2.97913
	lat_b	4.86259
	lat_c	23.42762
	alpha	90.0d0
	beta	90.0d0
	gamma	90.0d0
	end
	U1	0.66667	0.50000	0.66494
	U2	0.33333	0.00000	0.63100
	U3	0.00000	0.50000	0.55996
	U4	0.66667	0.00000	0.50000
	U5	0.33333	0.50000	0.42895
	U6	0.00000	0.00000	0.39502
	O1	0.66667	0.00000	0.71829
end
task band energy


#       (211) gamma-uranium surface with surface displacements:	43.40%	-18.50%	and O displacement of	1.500	Å
geometry	center	noautosym	noautoz	print
	system	crystal
	lat_a	2.97913
	lat_b	4.86259
	lat_c	23.42762
	alpha	90.0d0
	beta	90.0d0
	gamma	90.0d0
	end
	U1	0.66667	0.50000	0.66494
	U2	0.33333	0.00000	0.63100
	U3	0.00000	0.50000	0.55996
	U4	0.66667	0.00000	0.50000
	U5	0.33333	0.50000	0.42895
	U6	0.00000	0.00000	0.39502
	O1	0.66667	0.00000	0.72896
end
task band energy


#       (211) gamma-uranium surface with surface displacements:	43.40%	-18.50%	and O displacement of	1.750	Å
geometry	center	noautosym	noautoz	print
	system	crystal
	lat_a	2.97913
	lat_b	4.86259
	lat_c	23.42762
	alpha	90.0d0
	beta	90.0d0
	gamma	90.0d0
	end
	U1	0.66667	0.50000	0.66494
	U2	0.33333	0.00000	0.63100
	U3	0.00000	0.50000	0.55996
	U4	0.66667	0.00000	0.50000
	U5	0.33333	0.50000	0.42895
	U6	0.00000	0.00000	0.39502
	O1	0.66667	0.00000	0.73963
end
task band energy


#       (211) gamma-uranium surface with surface displacements:	43.40%	-18.50%	and O displacement of	2.000	Å
geometry	center	noautosym	noautoz	print
	system	crystal
	lat_a	2.97913
	lat_b	4.86259
	lat_c	23.42762
	alpha	90.0d0
	beta	90.0d0
	gamma	90.0d0
	end
	U1	0.66667	0.50000	0.66494
	U2	0.33333	0.00000	0.63100
	U3	0.00000	0.50000	0.55996
	U4	0.66667	0.00000	0.50000
	U5	0.33333	0.50000	0.42895
	U6	0.00000	0.00000	0.39502
	O1	0.66667	0.00000	0.75031
end
task band energy

# A.M.D.G.
================================================================================


                                         
                                         


             Northwest Computational Chemistry Package (NWChem) 6.1.1
             --------------------------------------------------------


                    Environmental Molecular Sciences Laboratory
                       Pacific Northwest National Laboratory
                                Richland, WA 99352

                              Copyright (c) 1994-2012
                       Pacific Northwest National Laboratory
                            Battelle Memorial Institute

             NWChem is an open-source computational chemistry package
                        distributed under the terms of the
                      Educational Community License (ECL) 2.0
             A copy of the license is included with this distribution
                              in the LICENSE.TXT file

                                  ACKNOWLEDGMENT
                                  --------------

            This software and its documentation were developed at the
            EMSL at Pacific Northwest National Laboratory, a multiprogram
            national laboratory, operated for the U.S. Department of Energy
            by Battelle under Contract Number DE-AC05-76RL01830. Support
            for this work was provided by the Department of Energy Office
            of Biological and Environmental Research, Office of Basic
            Energy Sciences, and the Office of Advanced Scientific Computing.


           Job information
           ---------------

    hostname        = taub484
    program         = /home/davis68/bin/nwchem-dev
    date            = Thu Apr  4 20:18:42 2013

    compiled        = Wed_Oct_03_09:41:00_2012
    source          = /home/davis68/nwchem/nwchem-src-2012-Aug-27/
    nwchem branch   = Development
    nwchem revision = 22805
    ga revision     = 10079
    input           = ./U6O-211-ctr1.nw
    prefix          = U6O-211-ctr1.
    data base       = ./perm/U6O-211-ctr1.db
    status          = startup
    nproc           =      288
    time left       =     -1s



           Memory information
           ------------------

    heap     =   81920001 doubles =    625.0 Mbytes
    stack    =   81920001 doubles =    625.0 Mbytes
    global   =  163840000 doubles =   1250.0 Mbytes (distinct from heap & stack)
    total    =  327680002 doubles =   2500.0 Mbytes
    verify   = yes
    hardfail = no 


           Directory information
           ---------------------

  0 permanent = ./perm
  0 scratch   = ./scratch




                                NWChem Input Module
                                -------------------


                        Gamma-uranium (100) slab relaxation
                        -----------------------------------

  !!!!!!!!!  geom_3d NEEDS TESTING !!!!!!!!!! 


                             Geometry "geometry" -> ""
                             -------------------------

 Output coordinates in angstroms (scale by  1.889725989 to convert to a.u.)

  No.       Tag          Charge          X              Y              Z
 ---- ---------------- ---------- -------------- -------------- --------------
    1 U1                  92.0000     1.98609660     2.43129500    15.57796164
    2 U2                  92.0000     0.99303340     0.00000000    14.78282822
    3 U3                  92.0000     0.00000000     2.43129500    13.11853010
    4 U4                  92.0000     1.98609660     0.00000000    11.71381000
    5 U5                  92.0000     0.99303340     2.43129500    10.04927760
    6 U6                  92.0000     0.00000000     0.00000000     9.25437845
    7 O1                   8.0000     1.98609660     0.00000000    15.57796164

      Lattice Parameters 
      ------------------ 

      lattice vectors in angstroms (scale by  1.889725989 to convert to a.u.)

      a1=<   2.979   0.000   0.000 >
      a2=<   0.000   4.863   0.000 >
      a3=<   0.000   0.000  23.428 >
      a=       2.979 b=      4.863 c=      23.428
      alpha=  90.000 beta=  90.000 gamma=  90.000
      omega=   339.4

      reciprocal lattice vectors in a.u.

      b1=<   1.116   0.000  -0.000 >
      b2=<  -0.000   0.684  -0.000 >
      b3=<   0.000   0.000   0.142 >

      Atomic Mass 
      ----------- 

      U1               238.050800
      U2               238.050800
      U3               238.050800
      U4               238.050800
      U5               238.050800
      U6               238.050800
      O1                15.994910


 ==============================================================================
                                internuclear distances
 ------------------------------------------------------------------------------
       center one      |      center two      | atomic units |  angstroms
 ------------------------------------------------------------------------------
    2 U2               |   1 U1               |     5.18543  |     2.74401
    3 U3               |   1 U1               |     5.97386  |     3.16123
    3 U3               |   2 U2               |     5.87556  |     3.10921
    4 U4               |   2 U2               |     6.09566  |     3.22569
    4 U4               |   3 U3               |     6.49940  |     3.43933
    5 U5               |   3 U3               |     6.09607  |     3.22590
    5 U5               |   4 U4               |     5.87581  |     3.10935
    6 U6               |   4 U4               |     5.97386  |     3.16123
    6 U6               |   5 U5               |     5.18528  |     2.74393
    7 O1               |   1 U1               |     4.59448  |     2.43130
    7 O1               |   2 U2               |     2.40405  |     1.27217
 ------------------------------------------------------------------------------
                         number of included internuclear distances:         11
 ==============================================================================



 ==============================================================================
                                 internuclear angles
 ------------------------------------------------------------------------------
        center 1       |       center 2       |       center 3       |  degrees
 ------------------------------------------------------------------------------
    1 U1               |   2 U2               |   3 U3               |    65.03
    1 U1               |   7 O1               |   2 U2               |    90.00
    3 U3               |   1 U1               |   7 O1               |    90.00
    1 U1               |   2 U2               |   3 U3               |    65.03
    1 U1               |   2 U2               |   4 U4               |    99.46
    2 U2               |   7 O1               |   1 U1               |    90.00
    3 U3               |   2 U2               |   4 U4               |    65.74
    3 U3               |   2 U2               |   7 O1               |   125.72
    4 U4               |   2 U2               |   7 O1               |   110.75
    3 U3               |   2 U2               |   1 U1               |    65.03
    1 U1               |   3 U3               |   4 U4               |    87.42
    1 U1               |   3 U3               |   5 U5               |   123.15
    3 U3               |   2 U2               |   4 U4               |    65.74
    2 U2               |   3 U3               |   5 U5               |   114.27
    3 U3               |   5 U5               |   4 U4               |    65.73
    4 U4               |   2 U2               |   3 U3               |    65.74
    2 U2               |   4 U4               |   5 U5               |   114.27
    2 U2               |   4 U4               |   6 U6               |   123.15
    4 U4               |   5 U5               |   3 U3               |    65.73
    3 U3               |   4 U4               |   6 U6               |    87.42
    4 U4               |   5 U5               |   6 U6               |    65.03
    3 U3               |   5 U5               |   4 U4               |    65.73
    3 U3               |   5 U5               |   6 U6               |    99.45
    4 U4               |   5 U5               |   6 U6               |    65.03
    6 U6               |   5 U5               |   4 U4               |    65.03
    1 U1               |   7 O1               |   2 U2               |    90.00
 ------------------------------------------------------------------------------
                            number of included internuclear angles:         26
 ==============================================================================



          **********************************************************
          *                                                        *
          *                   NWPW BAND Calculation                *
          *                                                        *
          *  [(bundled Grassman/Stiefel manifold implementation)]  *
          *                                                        *
          *         [ NorthWest Chemistry implementation ]         *
          *                                                        *
          *                version #1.10   01/31/03                *
          *                                                        *
          *  A pseudopotential plane-wave band structure program   *
          *  with Brillouin zone sampling for optimizing crystals, *
          *  slabs, and polymers.  Developed by Eric J. Bylaska    *
          *  , Edoardo Apra, and Patrick Nichols.                  *
          *                                                        *
          **********************************************************
     >>>  JOB STARTED       AT Thu Apr  4 20:18:43 2013  <<<
          ================ input data ========================
  library name resolved from: environment
  NWCHEM_NWPW_LIBRARY set to: </home/davis68/nwchem/nwchem-6.1/src/nwpw/libraryps/>
 Generating 1d pseudopotential for U   

 Generated formatted_filename: ./perm/U.cpp
 - Spline fitted, nray=22291 -
  library name resolved from: environment
  NWCHEM_NWPW_LIBRARY set to: </home/davis68/nwchem/nwchem-6.1/src/nwpw/libraryps/>
 Generating 1d pseudopotential for O   

 Generated formatted_filename: ./perm/O.cpp
 - Spline fitted, nray=22291 -
 random planewave guess, initial psi:U6O-211-ctr1.movecs                               
 -   spin, nalpha, nbeta:                    2                   46                   44

 input psi filename:./perm/U6O-211-ctr1.movecs
Warning - Orthogonalization performed, spin,zone: 1   1
        - error(before)=  0.497636E+01 (  0.410236E+02)
        - error(after)=   0.710543E-14 (  0.460000E+02)
Warning - Orthogonalization performed, spin,zone: 2   1
        - error(before)=  0.476268E+01 (  0.392373E+02)
        - error(after)=   0.710543E-14 (  0.440000E+02)
Warning - Orthogonalization performed, spin,zone: 1   2
        - error(before)=  0.497750E+01 (  0.410225E+02)
        - error(after)=   0.710543E-14 (  0.460000E+02)
Warning - Orthogonalization performed, spin,zone: 2   2
        - error(before)=  0.476476E+01 (  0.392352E+02)
        - error(after)=   0.000000E+00 (  0.440000E+02)
Warning - Orthogonalization performed, spin,zone: 1   3
        - error(before)=  0.497776E+01 (  0.410222E+02)
        - error(after)=   0.710543E-14 (  0.460000E+02)
Warning - Orthogonalization performed, spin,zone: 2   3
        - error(before)=  0.476412E+01 (  0.392359E+02)
        - error(after)=   0.000000E+00 (  0.440000E+02)
Warning - Orthogonalization performed, spin,zone: 1   4
        - error(before)=  0.497596E+01 (  0.410240E+02)
        - error(after)=   0.710543E-14 (  0.460000E+02)
Warning - Orthogonalization performed, spin,zone: 2   4
        - error(before)=  0.476144E+01 (  0.392386E+02)
        - error(after)=   0.710543E-14 (  0.440000E+02)
Warning - Orthogonalization performed, spin,zone: 1   5
        - error(before)=  0.497516E+01 (  0.410248E+02)
        - error(after)=   0.000000E+00 (  0.460000E+02)
Warning - Orthogonalization performed, spin,zone: 2   5
        - error(before)=  0.476011E+01 (  0.392399E+02)
        - error(after)=   0.000000E+00 (  0.440000E+02)
Warning - Orthogonalization performed, spin,zone: 1   6
        - error(before)=  0.497869E+01 (  0.410213E+02)
        - error(after)=   0.000000E+00 (  0.460000E+02)
Warning - Orthogonalization performed, spin,zone: 2   6
        - error(before)=  0.476182E+01 (  0.392382E+02)
        - error(after)=   0.000000E+00 (  0.440000E+02)
Warning - Orthogonalization performed, spin,zone: 1   7
        - error(before)=  0.497489E+01 (  0.410251E+02)
        - error(after)=   0.000000E+00 (  0.460000E+02)
Warning - Orthogonalization performed, spin,zone: 2   7
        - error(before)=  0.476308E+01 (  0.392369E+02)
        - error(after)=   0.000000E+00 (  0.440000E+02)
Warning - Orthogonalization performed, spin,zone: 1   8
        - error(before)=  0.497341E+01 (  0.410266E+02)
        - error(after)=   0.710543E-14 (  0.460000E+02)
Warning - Orthogonalization performed, spin,zone: 2   8
        - error(before)=  0.475874E+01 (  0.392413E+02)
        - error(after)=   0.000000E+00 (  0.440000E+02)

 number of processors used:             288
 processor grid           :  36 x   1 x   8
 parallel mapping         :     2d  hilbert

 options:
      boundary conditions  = periodic    (version3)
      electron spin        = unrestricted
      exchange-correlation = PBE96 (White and Bird) parameterization

 elements involved in the cluster:
      1: U     core charge:14.0  lmax=3
             comment    : Parameterized (J.Chem. Phys. vol 128, 124507 (2008)) Troullier-Martins psp
             pseudpotential type            :   0
             highest angular component      :   3
             local potential used           :   0
             number of non-local projections:  15
             cutoff =   1.421   1.602   2.400   1.250
      2: O     core charge: 6.0  lmax=2
             comment    : Parameterized (Chem.Phys.Lett., vol 322, page 447) Hamman psp
             pseudpotential type            :   0
             highest angular component      :   2
             local potential used           :   2
             number of non-local projections:   4
             cutoff =   0.700   0.700   0.700

 total charge:   0.000

 atomic composition:
     U   :  6     O   :  1

 number of electrons: spin up=   46.00  spin down=   44.00 (fourier space)
 number of orbitals:  spin up=      46  spin down=      44 (fourier space)

 supercell:
      lattice:    a1=<   5.630   0.000   0.000 >
                  a2=<   0.000   9.189   0.000 >
                  a3=<   0.000   0.000  44.272 >
      reciprocal: b1=<   1.116   0.000  -0.000 >
                  b2=<  -0.000   0.684  -0.000 >
                  b3=<   0.000   0.000   0.142 >

      lattice:    a=   5.630    b=   9.189     c=  44.272
              alpha=  90.000 beta=  90.000 gamma=  90.000
      volume :     2290.2
      ewald summation: cut radius=    3.00  and  8
                        madelung=-3.07590645

 brillouin zone:
      number of zone points:     8
      weight=   0.125  ks=<   0.375   0.375   0.000 >, k=<   0.419   0.256  -0.000>
      weight=   0.125  ks=<   0.125   0.375   0.000 >, k=<   0.140   0.256  -0.000>
      weight=   0.125  ks=<  -0.125   0.375   0.000 >, k=<  -0.140   0.256  -0.000>
      weight=   0.125  ks=<   0.375  -0.375   0.000 >, k=<   0.419  -0.256  -0.000>
      weight=   0.125  ks=<   0.375   0.125   0.000 >, k=<   0.419   0.085  -0.000>
      weight=   0.125  ks=<   0.125   0.125   0.000 >, k=<   0.140   0.085  -0.000>
      weight=   0.125  ks=<   0.125  -0.125   0.000 >, k=<   0.140  -0.085  -0.000>
      weight=   0.125  ks=<   0.375  -0.125   0.000 >, k=<   0.419  -0.085  -0.000>

 computational grids:
      density     cutoff=134.654  fft=  32x  48x 240(   170825 waves     4745 per task)
      wavefnc   1 cutoff= 90.000  fft=  32x  48x 240(    93406 waves     2594 per task)
      wavefnc   2 cutoff= 90.000  fft=  32x  48x 240(    93331 waves     2592 per task)
      wavefnc   3 cutoff= 90.000  fft=  32x  48x 240(    93331 waves     2592 per task)
      wavefnc   4 cutoff= 90.000  fft=  32x  48x 240(    93406 waves     2594 per task)
      wavefnc   5 cutoff= 90.000  fft=  32x  48x 240(    93512 waves     2597 per task)
      wavefnc   6 cutoff= 90.000  fft=  32x  48x 240(    93355 waves     2593 per task)
      wavefnc   7 cutoff= 90.000  fft=  32x  48x 240(    93355 waves     2593 per task)
      wavefnc   8 cutoff= 90.000  fft=  32x  48x 240(    93512 waves     2597 per task)

 technical parameters:
      time step=      5.80     ficticious mass=  400000.0
      tolerance=.100E-06 (energy)   0.100E-06 (density)
      maximum iterations =      3000 (   10 inner    300 outer )



= energy calculation =


          ======== bundled Grassmann lmbfgs iteration ========
     >>>  ITERATION STARTED AT Thu Apr  4 20:19:33 2013  <<<
    iter.           Energy         DeltaE       DeltaRho 
    ------------------------------------------------------
     -  10 steepest descent iterations performed
      10   -0.2999935349E+03   -0.36966E+01    0.92980E+01
     -  10 steepest descent iterations performed
      20   -0.3189888142E+03   -0.37503E+00    0.12015E+00
     -  10 steepest descent iterations performed
      30   -0.3213317407E+03   -0.11481E+00    0.22671E-01
     -  10 steepest descent iterations performed
      40   -0.3221619110E+03   -0.49821E-01    0.73914E-02
     -  10 steepest descent iterations performed
      50   -0.3225344971E+03   -0.20883E-01    0.39960E-02
     -  10 steepest descent iterations performed
      60   -0.3227376571E+03   -0.13076E-01    0.22007E-02
     -  10 steepest descent iterations performed
      70   -0.3228614952E+03   -0.75647E-02    0.17432E-02
      80   -0.3230233535E+03   -0.58910E-02    0.85549E-02
      90   -0.3230573195E+03   -0.40433E-02    0.75098E-03
     100   -0.3231007080E+03   -0.34296E-02    0.27533E-02
     110   -0.3231246524E+03   -0.15737E-02    0.95014E-03
     120   -0.3231439912E+03   -0.27635E-02    0.11358E-02
     -  10 steepest descent iterations performed
     130   -0.3231627635E+03   -0.97578E-03    0.16235E-03
     140   -0.3231807365E+03   -0.20918E-02    0.95942E-03
     -  10 steepest descent iterations performed
     150   -0.3231910899E+03   -0.65373E-03    0.22022E-03
     160   -0.3232002159E+03   -0.10560E-02    0.95446E-03
     -  10 steepest descent iterations performed
     170   -0.3232088729E+03   -0.42644E-03    0.16909E-03
     180   -0.3232149277E+03   -0.65860E-03    0.55627E-03
     -  10 steepest descent iterations performed
     190   -0.3232217618E+03   -0.43859E-03    0.21732E-03
     200   -0.3232264796E+03   -0.47676E-03    0.45691E-03
     -  10 steepest descent iterations performed
     210   -0.3232321413E+03   -0.28552E-03    0.15099E-03
     220   -0.3232355902E+03   -0.35702E-03    0.29121E-03
     -  10 steepest descent iterations performed
     230   -0.3232399912E+03   -0.28488E-03    0.15596E-03
     240   -0.3232428389E+03   -0.28633E-03    0.24448E-03
     -  10 steepest descent iterations performed
     250   -0.3232465487E+03   -0.19101E-03    0.10750E-03
     260   -0.3232487783E+03   -0.23267E-03    0.17403E-03
     -  10 steepest descent iterations performed
     270   -0.3232518248E+03   -0.19947E-03    0.11106E-03
     280   -0.3232537908E+03   -0.19896E-03    0.16143E-03
     290   -0.3232630467E+03   -0.34323E-03    0.36609E-02
     -  10 steepest descent iterations performed
     300   -0.3232668327E+03   -0.23807E-03    0.11475E-03
     310   -0.3232681817E+03   -0.16997E-03    0.10027E-03
     320   -0.3232709694E+03   -0.17106E-03    0.65587E-03
     -  10 steepest descent iterations performed
     330   -0.3232731270E+03   -0.11534E-03    0.55471E-04
     340   -0.3232746192E+03   -0.16343E-03    0.15928E-03
     -  10 steepest descent iterations performed
     350   -0.3232761064E+03   -0.10995E-03    0.52821E-04
     360   -0.3232774262E+03   -0.11874E-03    0.19240E-03
     -  10 steepest descent iterations performed
     370   -0.3232790472E+03   -0.97255E-04    0.51584E-04
     380   -0.3232799232E+03   -0.10081E-03    0.86788E-04
     -  10 steepest descent iterations performed
     390   -0.3232811724E+03   -0.94405E-04    0.49026E-04
     400   -0.3232821306E+03   -0.86877E-04    0.12761E-03
     410   -0.3232862182E+03   -0.22309E-03    0.27603E-02
     -  10 steepest descent iterations performed
     420   -0.3232887179E+03   -0.82498E-04    0.37522E-04
     430   -0.3232894544E+03   -0.78925E-04    0.49500E-04
     440   -0.3232904642E+03   -0.97987E-04    0.17220E-03
     -  10 steepest descent iterations performed
     450   -0.3232916424E+03   -0.62649E-04    0.25559E-04
     460   -0.3232923684E+03   -0.85126E-04    0.71502E-04
     -  10 steepest descent iterations performed
     470   -0.3232932845E+03   -0.77644E-04    0.39403E-04
     480   -0.3232941098E+03   -0.71113E-04    0.13755E-03
     490   -0.3232968263E+03   -0.15371E-03    0.20434E-02
     -  10 steepest descent iterations performed
     500   -0.3232991511E+03   -0.11229E-03    0.36452E-04
     510   -0.3232996650E+03   -0.50822E-04    0.29173E-04
     520   -0.3233001889E+03   -0.52823E-04    0.96445E-04
     -  10 steepest descent iterations performed
     530   -0.3233008504E+03   -0.36197E-04    0.31684E-04
     540   -0.3233013966E+03   -0.56326E-04    0.13020E-03
     -  10 steepest descent iterations performed
     550   -0.3233020294E+03   -0.49296E-04    0.31322E-04
     560   -0.3233023748E+03   -0.32341E-04    0.53443E-04
     570   -0.3233033031E+03   -0.91115E-04    0.63623E-03
     -  10 steepest descent iterations performed
     580   -0.3233040732E+03   -0.23153E-04    0.82629E-05
     590   -0.3233042704E+03   -0.13990E-04    0.11283E-04
     600   -0.3233044445E+03   -0.17932E-04    0.27943E-04
     -  10 steepest descent iterations performed
     610   -0.3233046809E+03   -0.19111E-04    0.11816E-04
     -  10 steepest descent iterations performed
     620   -0.3233048193E+03   -0.92039E-05    0.98955E-05
     630   -0.3233052417E+03   -0.42744E-04    0.33421E-03
     -  10 steepest descent iterations performed
     640   -0.3233055728E+03   -0.90243E-05    0.18592E-05
     650   -0.3233056168E+03   -0.57399E-05    0.25381E-05
     660   -0.3233058353E+03   -0.10130E-04    0.14733E-03
     -  10 steepest descent iterations performed
     670   -0.3233060138E+03   -0.58606E-05    0.23118E-05
     680   -0.3233060497E+03   -0.30953E-05    0.15675E-05
     690   -0.3233061142E+03   -0.77677E-05    0.19078E-04
     -  10 steepest descent iterations performed
     700   -0.3233061856E+03   -0.32279E-05    0.11241E-05
     710   -0.3233062260E+03   -0.51258E-05    0.62176E-05
     -  10 steepest descent iterations performed
     720   -0.3233062716E+03   -0.36001E-05    0.17731E-05
     730   -0.3233063165E+03   -0.46215E-05    0.10553E-04
     -  10 steepest descent iterations performed
     740   -0.3233063680E+03   -0.31817E-05    0.13377E-05
     750   -0.3233063958E+03   -0.27623E-05    0.37287E-05
     760   -0.3233064784E+03   -0.98817E-05    0.55001E-04
     -  10 steepest descent iterations performed
     770   -0.3233065617E+03   -0.26554E-05    0.83298E-06
     780   -0.3233065808E+03   -0.18395E-05    0.11250E-05
     790   -0.3233066029E+03   -0.23215E-05    0.44379E-05
     -  10 steepest descent iterations performed
     800   -0.3233066339E+03   -0.18015E-05    0.10213E-05