----------------------------------------
Begin Torque Prologue (Mon Mar 18 07:18:36 2013)
Job ID:           389263.taubm1.campuscluster.illinois.edu
Username:         davis68
Group:            npre_rizwan
Job Name:         U6O-100-brg
Limits:           ncpus=1,neednodes=24:ppn=12,nodes=24:ppn=12,walltime=12:00:00
Job Queue:        cse
Account:          NPRE
Nodes:            taub377 taub378 taub379 taub380 taub381 taub382 taub384 taub385 taub386 taub387 taub388 taub390 taub391 taub399 taub403 taub405 taub406 taub409 taub410 taub439 taub440 taub508 taub509 taub510
End Torque Prologue
----------------------------------------
 argument  1 = ./U6O-100-brg.nw



============================== echo of input deck ==============================
title "Gamma-uranium (100) slab relaxation"
echo

permanent_dir ./perm
scratch_dir   ./scratch

start U6O-100-brg

memory 2500 mb

nwpw
  # Real-space discretization
  simulation_cell
    ngrid 36 36 256
  end

  # Spin multiplicity---quenched to 1 in the solid state
  mult 3

  # Band, k-point sampling, and parallelism
  monkhorst-pack 4 4 1
  np_dimensions 8 12 8
  mapping 2

  # Periodicity considerations
  ewald_rcut 3.0
  ewald_ncut 8

  # Simulation parameters
  #restricted    # DFT||ODFT||RESTRICTED||UNRESTRICTED
  xc pbe96
  cutoff 90.0
  loop 10 300
end
set nwpw:minimizer      2
set nwpw:lcao_skip      .true.
set nwpw:kbpp_ray       .true.
set nwpw:cif_filename U6-pbe96.opt

#       (100) gamma-uranium surface with surface displacements:	29.7%	-15.3%	and O displacement of	1.000	Å
geometry	center	noautosym	noautoz	print
	system	crystal
	lat_a	3.44
	lat_b	3.44
	lat_c	25.32
	alpha	90.0d0
	beta	90.0d0
	gamma	90.0d0
	end
	U1	0.50000	0.50000	0.69401
	U2	0.00000	0.00000	0.64625
	U3	0.50000	0.50000	0.56793
	U4	0.00000	0.00000	0.50000
	U5	0.50000	0.50000	0.42168
	U6	0.00000	0.00000	0.37392
	O1	0.25000	0.25000	0.73350
end
task band energy

nwpw
  simulation_cell
    ngrid 64 64 512
  end
end

#       (100) gamma-uranium surface with surface displacements:	29.7%	-15.3%	and O displacement of	1.000	Å
geometry	center	noautosym	noautoz	print
	system	crystal
	lat_a	3.44
	lat_b	3.44
	lat_c	25.32
	alpha	90.0d0
	beta	90.0d0
	gamma	90.0d0
	end
	U1	0.50000	0.50000	0.69401
	U2	0.00000	0.00000	0.64625
	U3	0.50000	0.50000	0.56793
	U4	0.00000	0.00000	0.50000
	U5	0.50000	0.50000	0.42168
	U6	0.00000	0.00000	0.37392
	O1	0.25000	0.25000	0.73350
end
task band energy

#       (100) gamma-uranium surface with surface displacements:	29.7%	-15.3%	and O displacement of	1.250	Å
geometry	center	noautosym	noautoz	print
	system	crystal
	lat_a	3.44
	lat_b	3.44
	lat_c	25.32
	alpha	90.0d0
	beta	90.0d0
	gamma	90.0d0
	end
	U1	0.50000	0.50000	0.69401
	U2	0.00000	0.00000	0.64625
	U3	0.50000	0.50000	0.56793
	U4	0.00000	0.00000	0.50000
	U5	0.50000	0.50000	0.42168
	U6	0.00000	0.00000	0.37392
	O1	0.25000	0.25000	0.74338
end
task band energy

#       (100) gamma-uranium surface with surface displacements:	29.7%	-15.3%	and O displacement of	1.500	Å
geometry	center	noautosym	noautoz	print
	system	crystal
	lat_a	3.44
	lat_b	3.44
	lat_c	25.32
	alpha	90.0d0
	beta	90.0d0
	gamma	90.0d0
	end
	U1	0.50000	0.50000	0.69401
	U2	0.00000	0.00000	0.64625
	U3	0.50000	0.50000	0.56793
	U4	0.00000	0.00000	0.50000
	U5	0.50000	0.50000	0.42168
	U6	0.00000	0.00000	0.37392
	O1	0.25000	0.25000	0.75325
end
task band energy

#       (100) gamma-uranium surface with surface displacements:	29.7%	-15.3%	and O displacement of	1.750	Å
geometry	center	noautosym	noautoz	print
	system	crystal
	lat_a	3.44
	lat_b	3.44
	lat_c	25.32
	alpha	90.0d0
	beta	90.0d0
	gamma	90.0d0
	end
	U1	0.50000	0.50000	0.69401
	U2	0.00000	0.00000	0.64625
	U3	0.50000	0.50000	0.56793
	U4	0.00000	0.00000	0.50000
	U5	0.50000	0.50000	0.42168
	U6	0.00000	0.00000	0.37392
	O1	0.25000	0.25000	0.76312
end
task band energy

#       (100) gamma-uranium surface with surface displacements:	29.7%	-15.3%	and O displacement of	2.000	Å
geometry	center	noautosym	noautoz	print
	system	crystal
	lat_a	3.44
	lat_b	3.44
	lat_c	25.32
	alpha	90.0d0
	beta	90.0d0
	gamma	90.0d0
	end
	U1	0.50000	0.50000	0.69401
	U2	0.00000	0.00000	0.64625
	U3	0.50000	0.50000	0.56793
	U4	0.00000	0.00000	0.50000
	U5	0.50000	0.50000	0.42168
	U6	0.00000	0.00000	0.37392
	O1	0.25000	0.25000	0.77300
end
task band energy

# A.M.D.G.
================================================================================


                                         
                                         


             Northwest Computational Chemistry Package (NWChem) 6.1.1
             --------------------------------------------------------


                    Environmental Molecular Sciences Laboratory
                       Pacific Northwest National Laboratory
                                Richland, WA 99352

                              Copyright (c) 1994-2012
                       Pacific Northwest National Laboratory
                            Battelle Memorial Institute

             NWChem is an open-source computational chemistry package
                        distributed under the terms of the
                      Educational Community License (ECL) 2.0
             A copy of the license is included with this distribution
                              in the LICENSE.TXT file

                                  ACKNOWLEDGMENT
                                  --------------

            This software and its documentation were developed at the
            EMSL at Pacific Northwest National Laboratory, a multiprogram
            national laboratory, operated for the U.S. Department of Energy
            by Battelle under Contract Number DE-AC05-76RL01830. Support
            for this work was provided by the Department of Energy Office
            of Biological and Environmental Research, Office of Basic
            Energy Sciences, and the Office of Advanced Scientific Computing.


           Job information
           ---------------

    hostname        = taub440
    program         = /home/davis68/bin/nwchem-dev
    date            = Mon Mar 18 07:18:41 2013

    compiled        = Wed_Oct_03_09:41:00_2012
    source          = /home/davis68/nwchem/nwchem-src-2012-Aug-27/
    nwchem branch   = Development
    nwchem revision = 22805
    ga revision     = 10079
    input           = ./U6O-100-brg.nw
    prefix          = U6O-100-brg.
    data base       = ./perm/U6O-100-brg.db
    status          = startup
    nproc           =      288
    time left       =     -1s



           Memory information
           ------------------

    heap     =   81920001 doubles =    625.0 Mbytes
    stack    =   81920001 doubles =    625.0 Mbytes
    global   =  163840000 doubles =   1250.0 Mbytes (distinct from heap & stack)
    total    =  327680002 doubles =   2500.0 Mbytes
    verify   = yes
    hardfail = no 


           Directory information
           ---------------------

  0 permanent = ./perm
  0 scratch   = ./scratch




                                NWChem Input Module
                                -------------------


                        Gamma-uranium (100) slab relaxation
                        -----------------------------------

  !!!!!!!!!  geom_3d NEEDS TESTING !!!!!!!!!! 


                             Geometry "geometry" -> ""
                             -------------------------

 Output coordinates in angstroms (scale by  1.889725989 to convert to a.u.)

  No.       Tag          Charge          X              Y              Z
 ---- ---------------- ---------- -------------- -------------- --------------
    1 U1                  92.0000     1.72000000     1.72000000    17.57233320
    2 U2                  92.0000     0.00000000     0.00000000    16.36305000
    3 U3                  92.0000     1.72000000     1.72000000    14.37998760
    4 U4                  92.0000     0.00000000     0.00000000    12.66000000
    5 U5                  92.0000     1.72000000     1.72000000    10.67693760
    6 U6                  92.0000     0.00000000     0.00000000     9.46765440
    7 O1                   8.0000     0.86000000     0.86000000    18.57222000

      Lattice Parameters 
      ------------------ 

      lattice vectors in angstroms (scale by  1.889725989 to convert to a.u.)

      a1=<   3.440   0.000   0.000 >
      a2=<   0.000   3.440   0.000 >
      a3=<   0.000   0.000  25.320 >
      a=       3.440 b=      3.440 c=      25.320
      alpha=  90.000 beta=  90.000 gamma=  90.000
      omega=   299.6

      reciprocal lattice vectors in a.u.

      b1=<   0.967   0.000  -0.000 >
      b2=<  -0.000   0.967  -0.000 >
      b3=<   0.000   0.000   0.131 >

      Atomic Mass 
      ----------- 

      U1               238.050800
      U2               238.050800
      U3               238.050800
      U4               238.050800
      U5               238.050800
      U6               238.050800
      O1                15.994910


 ==============================================================================
                                internuclear distances
 ------------------------------------------------------------------------------
       center one      |      center two      | atomic units |  angstroms
 ------------------------------------------------------------------------------
    2 U2               |   1 U1               |     5.13337  |     2.71646
    3 U3               |   1 U1               |     6.03266  |     3.19235
    3 U3               |   2 U2               |     5.93065  |     3.13837
    4 U4               |   2 U2               |     6.99775  |     3.70305
    4 U4               |   3 U3               |     5.62972  |     2.97912
    5 U5               |   3 U3               |     6.99775  |     3.70305
    5 U5               |   4 U4               |     5.93065  |     3.13837
    6 U6               |   4 U4               |     6.03266  |     3.19235
    6 U6               |   5 U5               |     5.13337  |     2.71646
    7 O1               |   1 U1               |     2.97533  |     1.57448
    7 O1               |   2 U2               |     4.76557  |     2.52183
 ------------------------------------------------------------------------------
                         number of included internuclear distances:         11
 ==============================================================================



 ==============================================================================
                                 internuclear angles
 ------------------------------------------------------------------------------
        center 1       |       center 2       |       center 3       |  degrees
 ------------------------------------------------------------------------------
    1 U1               |   2 U2               |   3 U3               |    65.62
    1 U1               |   7 O1               |   2 U2               |    79.41
    3 U3               |   1 U1               |   7 O1               |   129.42
    1 U1               |   2 U2               |   3 U3               |    65.62
    1 U1               |   2 U2               |   4 U4               |   116.43
    2 U2               |   7 O1               |   1 U1               |    79.41
    2 U2               |   3 U3               |   4 U4               |    74.45
    3 U3               |   2 U2               |   7 O1               |   100.35
    4 U4               |   2 U2               |   7 O1               |   151.17
    3 U3               |   2 U2               |   1 U1               |    65.62
    1 U1               |   3 U3               |   4 U4               |   125.26
    1 U1               |   3 U3               |   5 U5               |   180.00
    2 U2               |   3 U3               |   4 U4               |    74.45
    2 U2               |   3 U3               |   5 U5               |   129.19
    3 U3               |   4 U4               |   5 U5               |    74.45
    4 U4               |   3 U3               |   2 U2               |    74.45
    2 U2               |   4 U4               |   5 U5               |   129.19
    2 U2               |   4 U4               |   6 U6               |   180.00
    3 U3               |   4 U4               |   5 U5               |    74.45
    3 U3               |   4 U4               |   6 U6               |   125.26
    4 U4               |   5 U5               |   6 U6               |    65.62
    5 U5               |   4 U4               |   3 U3               |    74.45
    3 U3               |   5 U5               |   6 U6               |   116.43
    4 U4               |   5 U5               |   6 U6               |    65.62
    6 U6               |   5 U5               |   4 U4               |    65.62
    1 U1               |   7 O1               |   2 U2               |    79.41
 ------------------------------------------------------------------------------
                            number of included internuclear angles:         26
 ==============================================================================



          **********************************************************
          *                                                        *
          *                   NWPW BAND Calculation                *
          *                                                        *
          *  [(bundled Grassman/Stiefel manifold implementation)]  *
          *                                                        *
          *         [ NorthWest Chemistry implementation ]         *
          *                                                        *
          *                version #1.10   01/31/03                *
          *                                                        *
          *  A pseudopotential plane-wave band structure program   *
          *  with Brillouin zone sampling for optimizing crystals, *
          *  slabs, and polymers.  Developed by Eric J. Bylaska    *
          *  , Edoardo Apra, and Patrick Nichols.                  *
          *                                                        *
          **********************************************************
     >>>  JOB STARTED       AT Mon Mar 18 07:18:41 2013  <<<
          ================ input data ========================
  library name resolved from: environment
  NWCHEM_NWPW_LIBRARY set to: </home/davis68/nwchem/nwchem-6.1/src/nwpw/libraryps/>
 Generating 1d pseudopotential for U   

 Generated formatted_filename: ./perm/U.cpp
 - Spline fitted, nray=24215 -
  library name resolved from: environment
  NWCHEM_NWPW_LIBRARY set to: </home/davis68/nwchem/nwchem-6.1/src/nwpw/libraryps/>
 Generating 1d pseudopotential for O   

 Generated formatted_filename: ./perm/O.cpp
 - Spline fitted, nray=24215 -
 random planewave guess, initial psi:U6O-100-brg.movecs                                
 -   spin, nalpha, nbeta:                    2                   46                   44

 input psi filename:./perm/U6O-100-brg.movecs
Warning - Orthogonalization performed, spin,zone: 1   1
        - error(before)=  0.500593E+01 (  0.409941E+02)
        - error(after)=   0.000000E+00 (  0.460000E+02)
Warning - Orthogonalization performed, spin,zone: 2   1
        - error(before)=  0.479084E+01 (  0.392092E+02)
        - error(after)=   0.710543E-14 (  0.440000E+02)
Warning - Orthogonalization performed, spin,zone: 1   2
        - error(before)=  0.500973E+01 (  0.409903E+02)
        - error(after)=   0.000000E+00 (  0.460000E+02)
Warning - Orthogonalization performed, spin,zone: 2   2
        - error(before)=  0.479361E+01 (  0.392064E+02)
        - error(after)=   0.710543E-14 (  0.440000E+02)
Warning - Orthogonalization performed, spin,zone: 1   3
        - error(before)=  0.501130E+01 (  0.409887E+02)
        - error(after)=   0.000000E+00 (  0.460000E+02)
Warning - Orthogonalization performed, spin,zone: 2   3
        - error(before)=  0.479422E+01 (  0.392058E+02)
        - error(after)=   0.710543E-14 (  0.440000E+02)
Warning - Orthogonalization performed, spin,zone: 1   4
        - error(before)=  0.500648E+01 (  0.409935E+02)
        - error(after)=   0.000000E+00 (  0.460000E+02)
Warning - Orthogonalization performed, spin,zone: 2   4
        - error(before)=  0.478959E+01 (  0.392104E+02)
        - error(after)=   0.710543E-14 (  0.440000E+02)
Warning - Orthogonalization performed, spin,zone: 1   5
        - error(before)=  0.500921E+01 (  0.409908E+02)
        - error(after)=   0.710543E-14 (  0.460000E+02)
Warning - Orthogonalization performed, spin,zone: 2   5
        - error(before)=  0.479450E+01 (  0.392055E+02)
        - error(after)=   0.000000E+00 (  0.440000E+02)
Warning - Orthogonalization performed, spin,zone: 1   6
        - error(before)=  0.500967E+01 (  0.409903E+02)
        - error(after)=   0.000000E+00 (  0.460000E+02)
Warning - Orthogonalization performed, spin,zone: 2   6
        - error(before)=  0.479615E+01 (  0.392038E+02)
        - error(after)=   0.710543E-14 (  0.440000E+02)
Warning - Orthogonalization performed, spin,zone: 1   7
        - error(before)=  0.500950E+01 (  0.409905E+02)
        - error(after)=   0.142109E-13 (  0.460000E+02)
Warning - Orthogonalization performed, spin,zone: 2   7
        - error(before)=  0.479403E+01 (  0.392060E+02)
        - error(after)=   0.710543E-14 (  0.440000E+02)
Warning - Orthogonalization performed, spin,zone: 1   8
        - error(before)=  0.500808E+01 (  0.409919E+02)
        - error(after)=   0.710543E-14 (  0.460000E+02)
Warning - Orthogonalization performed, spin,zone: 2   8
        - error(before)=  0.479366E+01 (  0.392063E+02)
        - error(after)=   0.710543E-14 (  0.440000E+02)

 number of processors used:             288
 processor grid           :  36 x   1 x   8
 parallel mapping         :     2d  hilbert

 options:
      boundary conditions  = periodic    (version3)
      electron spin        = unrestricted
      exchange-correlation = PBE96 (White and Bird) parameterization

 elements involved in the cluster:
      1: U     core charge:14.0  lmax=3
             comment    : Parameterized (J.Chem. Phys. vol 128, 124507 (2008)) Troullier-Martins psp
             pseudpotential type            :   0
             highest angular component      :   3
             local potential used           :   0
             number of non-local projections:  15
             cutoff =   1.421   1.602   2.400   1.250
      2: O     core charge: 6.0  lmax=2
             comment    : Parameterized (Chem.Phys.Lett., vol 322, page 447) Hamman psp
             pseudpotential type            :   0
             highest angular component      :   2
             local potential used           :   2
             number of non-local projections:   4
             cutoff =   0.700   0.700   0.700

 total charge:   0.000

 atomic composition:
     U   :  6     O   :  1

 number of electrons: spin up=   46.00  spin down=   44.00 (fourier space)
 number of orbitals:  spin up=      46  spin down=      44 (fourier space)

 supercell:
      lattice:    a1=<   6.501   0.000   0.000 >
                  a2=<   0.000   6.501   0.000 >
                  a3=<   0.000   0.000  47.848 >
      reciprocal: b1=<   0.967   0.000  -0.000 >
                  b2=<  -0.000   0.967  -0.000 >
                  b3=<   0.000   0.000   0.131 >

      lattice:    a=   6.501    b=   6.501     c=  47.848
              alpha=  90.000 beta=  90.000 gamma=  90.000
      volume :     2022.0
      ewald summation: cut radius=    3.00  and  8
                        madelung=-4.59469223

 brillouin zone:
      number of zone points:     8
      weight=   0.125  ks=<   0.375   0.375   0.000 >, k=<   0.362   0.362  -0.000>
      weight=   0.125  ks=<   0.125   0.375   0.000 >, k=<   0.121   0.362  -0.000>
      weight=   0.125  ks=<  -0.125   0.375   0.000 >, k=<  -0.121   0.362  -0.000>
      weight=   0.125  ks=<   0.375  -0.375   0.000 >, k=<   0.362  -0.362  -0.000>
      weight=   0.125  ks=<   0.375   0.125   0.000 >, k=<   0.362   0.121  -0.000>
      weight=   0.125  ks=<   0.125   0.125   0.000 >, k=<   0.121   0.121  -0.000>
      weight=   0.125  ks=<   0.125  -0.125   0.000 >, k=<   0.121  -0.121  -0.000>
      weight=   0.125  ks=<   0.375  -0.125   0.000 >, k=<   0.362  -0.121  -0.000>

 computational grids:
      density     cutoff=141.262  fft=  36x  36x 256(   162259 waves     4507 per task)
      wavefnc   1 cutoff= 90.000  fft=  36x  36x 256(    82592 waves     2294 per task)
      wavefnc   2 cutoff= 90.000  fft=  36x  36x 256(    82409 waves     2289 per task)
      wavefnc   3 cutoff= 90.000  fft=  36x  36x 256(    82409 waves     2289 per task)
      wavefnc   4 cutoff= 90.000  fft=  36x  36x 256(    82592 waves     2294 per task)
      wavefnc   5 cutoff= 90.000  fft=  36x  36x 256(    82409 waves     2289 per task)
      wavefnc   6 cutoff= 90.000  fft=  36x  36x 256(    82433 waves     2289 per task)
      wavefnc   7 cutoff= 90.000  fft=  36x  36x 256(    82433 waves     2289 per task)
      wavefnc   8 cutoff= 90.000  fft=  36x  36x 256(    82409 waves     2289 per task)

 technical parameters:
      time step=      5.80     ficticious mass=  400000.0
      tolerance=.100E-06 (energy)   0.100E-06 (density)
      maximum iterations =      3000 (   10 inner    300 outer )



= energy calculation =


          ======== bundled Grassmann lmbfgs iteration ========
     >>>  ITERATION STARTED AT Mon Mar 18 07:19:23 2013  <<<
    iter.           Energy         DeltaE       DeltaRho 
    ------------------------------------------------------
     -  10 steepest descent iterations performed
      10   -0.2967282194E+03   -0.43017E+01    0.98636E+01
     -  10 steepest descent iterations performed
      20   -0.3190191211E+03   -0.50368E+00    0.22816E+00
     -  10 steepest descent iterations performed
      30   -0.3217526118E+03   -0.11695E+00    0.21270E-01
     -  10 steepest descent iterations performed
      40   -0.3226626884E+03   -0.53955E-01    0.14204E-01
     -  10 steepest descent iterations performed
      50   -0.3230810666E+03   -0.23627E-01    0.26509E-02
     -  10 steepest descent iterations performed
      60   -0.3233161519E+03   -0.15099E-01    0.28095E-02
     -  10 steepest descent iterations performed
      70   -0.3234578649E+03   -0.82137E-02    0.87257E-03
      80   -0.3236296304E+03   -0.67501E-02    0.61211E-02
      90   -0.3236666809E+03   -0.44535E-02    0.61018E-03
     100   -0.3237145191E+03   -0.38924E-02    0.22625E-02
     110   -0.3237390612E+03   -0.18870E-02    0.85681E-03
     120   -0.3237614579E+03   -0.25359E-02    0.14962E-02
     -  10 steepest descent iterations performed
     130   -0.3237813445E+03   -0.11629E-02    0.26464E-03
     140   -0.3237986463E+03   -0.17520E-02    0.11169E-02
     -  10 steepest descent iterations performed
     150   -0.3238079931E+03   -0.58268E-03    0.22604E-03
     160   -0.3238151905E+03   -0.76160E-03    0.68458E-03
     -  10 steepest descent iterations performed
     170   -0.3238217209E+03   -0.34077E-03    0.15196E-03
     180   -0.3238260085E+03   -0.43825E-03    0.39484E-03
     -  10 steepest descent iterations performed
     190   -0.3238307814E+03   -0.29589E-03    0.18662E-03
     200   -0.3238338706E+03   -0.30622E-03    0.33653E-03
     -  10 steepest descent iterations performed
     210   -0.3238376346E+03   -0.19468E-03    0.12623E-03
     220   -0.3238398785E+03   -0.22761E-03    0.24629E-03
     -  10 steepest descent iterations performed
     230   -0.3238427798E+03   -0.17909E-03    0.13052E-03
     240   -0.3238445800E+03   -0.17694E-03    0.21562E-03
     250   -0.3238523432E+03   -0.32609E-03    0.47265E-02
     -  10 steepest descent iterations performed
     260   -0.3238552592E+03   -0.12967E-03    0.56712E-04
     270   -0.3238560975E+03   -0.85366E-04    0.49299E-04
     280   -0.3238577609E+03   -0.12200E-03    0.38640E-03
     -  10 steepest descent iterations performed
     290   -0.3238591928E+03   -0.64762E-04    0.33529E-04
     300   -0.3238600297E+03   -0.10928E-03    0.10205E-03
     -  10 steepest descent iterations performed
     310   -0.3238610036E+03   -0.84988E-04    0.49438E-04
     320   -0.3238619188E+03   -0.73878E-04    0.18809E-03
     330   -0.3238648758E+03   -0.20884E-03    0.25081E-02
     -  10 steepest descent iterations performed
     340   -0.3238671424E+03   -0.95977E-04    0.27481E-04
     350   -0.3238677557E+03   -0.42652E-04    0.29613E-04
     360   -0.3238684185E+03   -0.79996E-04    0.11097E-03
     -  10 steepest descent iterations performed
     370   -0.3238692789E+03   -0.65847E-04    0.37012E-04
     380   -0.3238700293E+03   -0.77463E-04    0.15686E-03
     -  10 steepest descent iterations performed
     390   -0.3238710402E+03   -0.76438E-04    0.50044E-04
     400   -0.3238717907E+03   -0.80983E-04    0.13589E-03
     -  10 steepest descent iterations performed
     410   -0.3238729648E+03   -0.10422E-03    0.74317E-04
     -  10 steepest descent iterations performed
     420   -0.3238738940E+03   -0.97748E-04    0.10279E-03
     430   -0.3238769949E+03   -0.37292E-03    0.25789E-02
     -  10 steepest descent iterations performed
     440   -0.3238807646E+03   -0.11196E-03    0.40129E-04
     450   -0.3238814300E+03   -0.74044E-04    0.39098E-04
     460   -0.3238833182E+03   -0.14106E-03    0.51114E-03
     -  10 steepest descent iterations performed
     470   -0.3238845372E+03   -0.29800E-04    0.23150E-04
     480   -0.3238848571E+03   -0.37946E-04    0.26445E-04
     -  10 steepest descent iterations performed
     490   -0.3238852961E+03   -0.52527E-04    0.33582E-04
     -  10 steepest descent iterations performed
     500   -0.3238856062E+03   -0.21847E-04    0.18224E-04
     510   -0.3238863793E+03   -0.50235E-04    0.44707E-03
     -  10 steepest descent iterations performed
     520   -0.3238869164E+03   -0.17194E-04    0.10241E-04
     530   -0.3238870329E+03   -0.11444E-04    0.62720E-05
     540   -0.3238872379E+03   -0.33081E-04    0.62523E-04
     -  10 steepest descent iterations performed
     550   -0.3238874638E+03   -0.92363E-05    0.53316E-05
     560   -0.3238875862E+03   -0.11162E-04    0.18665E-04
     -  10 steepest descent iterations performed
     570   -0.3238877390E+03   -0.14359E-04    0.97294E-05
     -  10 steepest descent iterations performed
     580   -0.3238878528E+03   -0.91953E-05    0.10866E-04
     590   -0.3238881460E+03   -0.27566E-04    0.21965E-03
     -  10 steepest descent iterations performed
     600   -0.3238884227E+03   -0.87396E-05    0.29485E-05
     610   -0.3238884753E+03   -0.52318E-05    0.31375E-05
     620   -0.3238885986E+03   -0.16640E-04    0.47232E-04
     -  10 steepest descent iterations performed
     630   -0.3238887365E+03   -0.47437E-05    0.33039E-05
     640   -0.3238888014E+03   -0.74240E-05    0.10759E-04
     -  10 steepest descent iterations performed
     650   -0.3238888901E+03   -0.88736E-05    0.69776E-05
     -  10 steepest descent iterations performed
     660   -0.3238889596E+03   -0.70432E-05    0.80875E-05
     670   -0.3238891530E+03   -0.16198E-04    0.18028E-03
     -  10 steepest descent iterations performed
     680   -0.3238893537E+03   -0.76933E-05    0.39361E-05
     690   -0.3238893890E+03   -0.28285E-05    0.19656E-05
     700   -0.3238895029E+03   -0.21130E-04    0.78812E-04
     -  10 steepest descent iterations performed
     710   -0.3238896262E+03   -0.27214E-05    0.24096E-05
     720   -0.3238896823E+03   -0.62248E-05    0.12979E-04
     -  10 steepest descent iterations performed
     730   -0.3238897519E+03   -0.74742E-05    0.59669E-05
     -  10 steepest descent iterations performed
     740   -0.3238898051E+03   -0.36763E-05    0.67352E-05
     750   -0.3238900457E+03   -0.32408E-04    0.44634E-03
     -  10 steepest descent iterations performed
     760   -0.3238902863E+03   -0.83566E-05    0.24177E-05
     770   -0.3238903219E+03   -0.38870E-05    0.23911E-05
     780   -0.3238903886E+03   -0.71792E-05    0.28611E-04
     -  10 steepest descent iterations performed
     790   -0.3238904707E+03   -0.29963E-05    0.32970E-05
     800   -0.3238905285E+03   -0.53482E-05    0.19820E-04
     -  10 steepest descent iterations performed
     810   -0.3238906047E+03   -0.55642E-05    0.56984E-05
     -  10 steepest descent iterations performed
     820   -0.3238906607E+03   -0.50036E-05    0.12074E-04
     830   -0.3238908623E+03   -0.19796E-04    0.35576E-03
     -  10 steepest descent iterations performed
     840   -0.3238910783E+03   -0.74619E-05    0.35598E-05
     850   -0.3238911092E+03   -0.25704E-05    0.17600E-05
     860   -0.3238911799E+03   -0.94476E-05    0.40900E-04
     -  10 steepest descent iterations performed
     870   -0.3238912612E+03   -0.23597E-05    0.21805E-05
     880   -0.3238913213E+03   -0.73651E-05    0.25158E-04
     -  10 steepest descent iterations performed
     890   -0.3238913909E+03   -0.55291E-05    0.45496E-05
     900   -0.3238914277E+03   -0.39451E-05    0.81135E-05
     910   -0.3238917901E+03   -0.52170E-04    0.13770E-02
     -  10 steepest descent iterations performed
     920   -0.3238920653E+03   -0.29804E-05    0.23638E-05
     930   -0.3238920940E+03   -0.18880E-05    0.13961E-05
     940   -0.3238921202E+03   -0.25040E-05    0.47893E-05
     -  10 steepest descent iterations performed
     950   -0.3238921566E+03   -0.35016E-05    0.33020E-05
     -  10 steepest descent iterations performed
     960   -0.3238921820E+03   -0.23210E-05    0.30689E-05
     970   -0.3238922769E+03   -0.10326E-04    0.13475E-03
     -  10 steepest descent iterations performed
     980   -0.3238923638E+03   -0.32277E-05    0.12143E-05
     990   -0.3238923786E+03   -0.99093E-06    0.67285E-06
    1000   -0.3238924035E+03   -0.39747E-05    0.93809E-05
     -  10 steepest descent iterations performed
    1010   -0.3238924319E+03   -0.10977E-05    0.82034E-06
    1020   -0.3238924560E+03   -0.27103E-05    0.76780E-05