 argument  1 = ./U8H-110-ctr.nw



============================== echo of input deck ==============================
title "Gamma-uranium (110) adsorption"
echo

permanent_dir ./perm
scratch_dir   ./scratch

restart U8H-110-ctr

memory 2500 mb

nwpw
  # Real-space discretization
  simulation_cell
    ngrid 36 48 360
  end

  # Spin multiplicity---quenched to 1 in the solid state
  mult 2

  # Band, k-point sampling, and parallelism
  monkhorst-pack 4 4 1
  np_dimensions 8 12 12
  mapping 2

  # Periodicity considerations
  ewald_rcut 3.0
  ewald_ncut 8

  # Simulation parameters
  #restricted    # DFT||ODFT||RESTRICTED||UNRESTRICTED
  xc pbe96
  cutoff 90.0
  loop 10 300
end
set nwpw:minimizer      2
set nwpw:lcao_skip      .true.
set nwpw:kbpp_ray       .true.
set nwpw:cif_filename U6-pbe96.opt

#       (110) gamma-uranium surface with surface displacements:	15.30%	and O displacement of	1.000	Å
geometry	center	noautosym	noautoz	print
	system	crystal
	lat_a	3.440
	lat_b	4.865
	lat_c	26.595
	alpha	90.0d0
	beta	90.0d0
	gamma	90.0d0
	end
	U1	0.00000	0.00000	0.66893
	U2	0.50000	0.50000	0.66893
	U3	0.00000	0.50000	0.59146
	U4	0.50000	0.00000	0.59146
	U5	0.00000	0.00000	0.50000
	U6	0.50000	0.50000	0.50000
	U7	0.00000	0.50000	0.42253
	U8	0.50000	0.00000	0.42253
	H1	0.50000	0.00000	0.70653
end
task band energy

#       (110) gamma-uranium surface with surface displacements:	15.30%	and O displacement of	0.750	Å
geometry	center	noautosym	noautoz	print
	system	crystal
	lat_a	3.440
	lat_b	4.865
	lat_c	26.595
	alpha	90.0d0
	beta	90.0d0
	gamma	90.0d0
	end
	U1	0.00000	0.00000	0.66893
	U2	0.50000	0.50000	0.66893
	U3	0.00000	0.50000	0.59146
	U4	0.50000	0.00000	0.59146
	U5	0.00000	0.00000	0.50000
	U6	0.50000	0.50000	0.50000
	U7	0.00000	0.50000	0.42253
	U8	0.50000	0.00000	0.42253
	H1	0.50000	0.00000	0.69713
end
task band energy

#       (110) gamma-uranium surface with surface displacements:	15.30%	and O displacement of	0.500	Å
geometry	center	noautosym	noautoz	print
	system	crystal
	lat_a	3.440
	lat_b	4.865
	lat_c	26.595
	alpha	90.0d0
	beta	90.0d0
	gamma	90.0d0
	end
	U1	0.00000	0.00000	0.66893
	U2	0.50000	0.50000	0.66893
	U3	0.00000	0.50000	0.59146
	U4	0.50000	0.00000	0.59146
	U5	0.00000	0.00000	0.50000
	U6	0.50000	0.50000	0.50000
	U7	0.00000	0.50000	0.42253
	U8	0.50000	0.00000	0.42253
	H1	0.50000	0.00000	0.68773
end
task band energy

#       (110) gamma-uranium surface with surface displacements:	15.30%	and O displacement of	0.250	Å
geometry	center	noautosym	noautoz	print
	system	crystal
	lat_a	3.440
	lat_b	4.865
	lat_c	26.595
	alpha	90.0d0
	beta	90.0d0
	gamma	90.0d0
	end
	U1	0.00000	0.00000	0.66893
	U2	0.50000	0.50000	0.66893
	U3	0.00000	0.50000	0.59146
	U4	0.50000	0.00000	0.59146
	U5	0.00000	0.00000	0.50000
	U6	0.50000	0.50000	0.50000
	U7	0.00000	0.50000	0.42253
	U8	0.50000	0.00000	0.42253
	H1	0.50000	0.00000	0.67833
end
task band energy

#       (110) gamma-uranium surface with surface displacements:	15.30%	and O displacement of	0.000	Å
geometry	center	noautosym	noautoz	print
	system	crystal
	lat_a	3.440
	lat_b	4.865
	lat_c	26.595
	alpha	90.0d0
	beta	90.0d0
	gamma	90.0d0
	end
	U1	0.00000	0.00000	0.66893
	U2	0.50000	0.50000	0.66893
	U3	0.00000	0.50000	0.59146
	U4	0.50000	0.00000	0.59146
	U5	0.00000	0.00000	0.50000
	U6	0.50000	0.50000	0.50000
	U7	0.00000	0.50000	0.42253
	U8	0.50000	0.00000	0.42253
	H1	0.50000	0.00000	0.66893
end
task band energy

#       (110) gamma-uranium surface with surface displacements:	15.30%	and O displacement of	-0.250	Å
geometry	center	noautosym	noautoz	print
	system	crystal
	lat_a	3.440
	lat_b	4.865
	lat_c	26.595
	alpha	90.0d0
	beta	90.0d0
	gamma	90.0d0
	end
	U1	0.00000	0.00000	0.66893
	U2	0.50000	0.50000	0.66893
	U3	0.00000	0.50000	0.59146
	U4	0.50000	0.00000	0.59146
	U5	0.00000	0.00000	0.50000
	U6	0.50000	0.50000	0.50000
	U7	0.00000	0.50000	0.42253
	U8	0.50000	0.00000	0.42253
	H1	0.50000	0.00000	0.65953
end
task band energy

#       (110) gamma-uranium surface with surface displacements:	15.30%	and O displacement of	-0.500	Å
geometry	center	noautosym	noautoz	print
	system	crystal
	lat_a	3.440
	lat_b	4.865
	lat_c	26.595
	alpha	90.0d0
	beta	90.0d0
	gamma	90.0d0
	end
	U1	0.00000	0.00000	0.66893
	U2	0.50000	0.50000	0.66893
	U3	0.00000	0.50000	0.59146
	U4	0.50000	0.00000	0.59146
	U5	0.00000	0.00000	0.50000
	U6	0.50000	0.50000	0.50000
	U7	0.00000	0.50000	0.42253
	U8	0.50000	0.00000	0.42253
	H1	0.50000	0.00000	0.65013
end
task band energy

#       (110) gamma-uranium surface with surface displacements:	15.30%	and O displacement of	-0.750	Å
geometry	center	noautosym	noautoz	print
	system	crystal
	lat_a	3.440
	lat_b	4.865
	lat_c	26.595
	alpha	90.0d0
	beta	90.0d0
	gamma	90.0d0
	end
	U1	0.00000	0.00000	0.66893
	U2	0.50000	0.50000	0.66893
	U3	0.00000	0.50000	0.59146
	U4	0.50000	0.00000	0.59146
	U5	0.00000	0.00000	0.50000
	U6	0.50000	0.50000	0.50000
	U7	0.00000	0.50000	0.42253
	U8	0.50000	0.00000	0.42253
	H1	0.50000	0.00000	0.64073
end
task band energy

#       (110) gamma-uranium surface with surface displacements:	15.30%	and O displacement of	-1.000	Å
geometry	center	noautosym	noautoz	print
	system	crystal
	lat_a	3.440
	lat_b	4.865
	lat_c	26.595
	alpha	90.0d0
	beta	90.0d0
	gamma	90.0d0
	end
	U1	0.00000	0.00000	0.66893
	U2	0.50000	0.50000	0.66893
	U3	0.00000	0.50000	0.59146
	U4	0.50000	0.00000	0.59146
	U5	0.00000	0.00000	0.50000
	U6	0.50000	0.50000	0.50000
	U7	0.00000	0.50000	0.42253
	U8	0.50000	0.00000	0.42253
	H1	0.50000	0.00000	0.63133
end
task band energy

# A.M.D.G.
================================================================================


                                         
                                         


             Northwest Computational Chemistry Package (NWChem) 6.1.1
             --------------------------------------------------------


                    Environmental Molecular Sciences Laboratory
                       Pacific Northwest National Laboratory
                                Richland, WA 99352

                              Copyright (c) 1994-2012
                       Pacific Northwest National Laboratory
                            Battelle Memorial Institute

             NWChem is an open-source computational chemistry package
                        distributed under the terms of the
                      Educational Community License (ECL) 2.0
             A copy of the license is included with this distribution
                              in the LICENSE.TXT file

                                  ACKNOWLEDGMENT
                                  --------------

            This software and its documentation were developed at the
            EMSL at Pacific Northwest National Laboratory, a multiprogram
            national laboratory, operated for the U.S. Department of Energy
            by Battelle under Contract Number DE-AC05-76RL01830. Support
            for this work was provided by the Department of Energy Office
            of Biological and Environmental Research, Office of Basic
            Energy Sciences, and the Office of Advanced Scientific Computing.


           Job information
           ---------------

    hostname        = taub498
    program         = /home/davis68/bin/nwchem-dev
    date            = Sat Mar 16 20:40:41 2013

    compiled        = Wed_Oct_03_09:41:00_2012
    source          = /home/davis68/nwchem/nwchem-src-2012-Aug-27/
    nwchem branch   = Development
    nwchem revision = 22805
    ga revision     = 10079
    input           = ./U8H-110-ctr.nw
    prefix          = U8H-110-ctr.
    data base       = ./perm/U8H-110-ctr.db
    status          = restart
    nproc           =      288
    time left       =     -1s



           Memory information
           ------------------

    heap     =   81920001 doubles =    625.0 Mbytes
    stack    =   81920001 doubles =    625.0 Mbytes
    global   =  163840000 doubles =   1250.0 Mbytes (distinct from heap & stack)
    total    =  327680002 doubles =   2500.0 Mbytes
    verify   = yes
    hardfail = no 


           Directory information
           ---------------------

  0 permanent = ./perm
  0 scratch   = ./scratch


           Previous task information
           -------------------------

    Theory    = band                            
    Operation = energy                        
    Status    = ok                            
    Qmmm      = F
    Ignore    = F


           Geometries in the database
           --------------------------

       Name                              Natoms  Last Modified
       --------------------------------  ------  ------------------------
    1  geometry                               9  Wed Mar 13 12:48:42 2013  

  The geometry named "geometry" is the default for restart



           Basis sets in the database
           --------------------------

  There are no basis sets in the database



                                NWChem Input Module
                                -------------------


                          Gamma-uranium (110) adsorption
                          ------------------------------

  !!!!!!!!!  geom_3d NEEDS TESTING !!!!!!!!!! 


                             Geometry "geometry" -> ""
                             -------------------------

 Output coordinates in angstroms (scale by  1.889725989 to convert to a.u.)

  No.       Tag          Charge          X              Y              Z
 ---- ---------------- ---------- -------------- -------------- --------------
    1 U1                  92.0000     0.00000000     0.00000000    17.79019335
    2 U2                  92.0000     1.72000000     2.43250000    17.79019335
    3 U3                  92.0000     0.00000000     2.43250000    15.72987870
    4 U4                  92.0000     1.72000000     0.00000000    15.72987870
    5 U5                  92.0000     0.00000000     0.00000000    13.29750000
    6 U6                  92.0000     1.72000000     2.43250000    13.29750000
    7 U7                  92.0000     0.00000000     2.43250000    11.23718535
    8 U8                  92.0000     1.72000000     0.00000000    11.23718535
    9 H1                   1.0000     1.72000000     0.00000000    18.79016535

      Lattice Parameters 
      ------------------ 

      lattice vectors in angstroms (scale by  1.889725989 to convert to a.u.)

      a1=<   3.440   0.000   0.000 >
      a2=<   0.000   4.865   0.000 >
      a3=<   0.000   0.000  26.595 >
      a=       3.440 b=      4.865 c=      26.595
      alpha=  90.000 beta=  90.000 gamma=  90.000
      omega=   445.1

      reciprocal lattice vectors in a.u.

      b1=<   0.967   0.000  -0.000 >
      b2=<  -0.000   0.683  -0.000 >
      b3=<   0.000   0.000   0.125 >

      Atomic Mass 
      ----------- 

      U1               238.050800
      U2               238.050800
      U3               238.050800
      U4               238.050800
      U5               238.050800
      U6               238.050800
      U7               238.050800
      U8               238.050800
      H1                 1.007825


 ==============================================================================
                                internuclear distances
 ------------------------------------------------------------------------------
       center one      |      center two      | atomic units |  angstroms
 ------------------------------------------------------------------------------
    2 U2               |   1 U1               |     5.62982  |     2.97917
    3 U3               |   1 U1               |     6.02403  |     3.18778
    3 U3               |   2 U2               |     5.07183  |     2.68390
    4 U4               |   1 U1               |     5.07183  |     2.68390
    4 U4               |   2 U2               |     6.02403  |     3.18778
    4 U4               |   3 U3               |     5.62982  |     2.97917
    5 U5               |   3 U3               |     6.50064  |     3.43999
    5 U5               |   4 U4               |     5.62963  |     2.97907
    6 U6               |   3 U3               |     5.62963  |     2.97907
    6 U6               |   4 U4               |     6.50064  |     3.43999
    6 U6               |   5 U5               |     5.62982  |     2.97917
    7 U7               |   5 U5               |     6.02403  |     3.18778
    7 U7               |   6 U6               |     5.07183  |     2.68390
    8 U8               |   5 U5               |     5.07183  |     2.68390
    8 U8               |   6 U6               |     6.02403  |     3.18778
    8 U8               |   7 U7               |     5.62982  |     2.97917
    9 H1               |   1 U1               |     3.75972  |     1.98956
 ------------------------------------------------------------------------------
                         number of included internuclear distances:         17
 ==============================================================================



 ==============================================================================
                                 internuclear angles
 ------------------------------------------------------------------------------
        center 1       |       center 2       |       center 3       |  degrees
 ------------------------------------------------------------------------------
    1 U1               |   2 U2               |   3 U3               |    68.28
    2 U2               |   1 U1               |   4 U4               |    68.28
    2 U2               |   1 U1               |   9 H1               |    60.06
    1 U1               |   4 U4               |   3 U3               |    68.28
    3 U3               |   1 U1               |   9 H1               |   108.96
    4 U4               |   1 U1               |   9 H1               |    80.32
    1 U1               |   2 U2               |   3 U3               |    68.28
    2 U2               |   1 U1               |   4 U4               |    68.28
    2 U2               |   3 U3               |   4 U4               |    68.28
    3 U3               |   2 U2               |   1 U1               |    68.28
    3 U3               |   4 U4               |   1 U1               |    68.28
    1 U1               |   3 U3               |   5 U5               |    85.26
    1 U1               |   3 U3               |   6 U6               |   121.85
    2 U2               |   3 U3               |   4 U4               |    68.28
    2 U2               |   3 U3               |   5 U5               |   122.87
    2 U2               |   3 U3               |   6 U6               |   104.88
    3 U3               |   4 U4               |   5 U5               |    70.53
    4 U4               |   3 U3               |   6 U6               |    70.53
    3 U3               |   6 U6               |   5 U5               |    70.53
    4 U4               |   1 U1               |   2 U2               |    68.28
    1 U1               |   4 U4               |   3 U3               |    68.28
    1 U1               |   4 U4               |   5 U5               |   104.88
    1 U1               |   4 U4               |   6 U6               |   122.87
    4 U4               |   3 U3               |   2 U2               |    68.28
    2 U2               |   4 U4               |   5 U5               |   121.85
    2 U2               |   4 U4               |   6 U6               |    85.26
    3 U3               |   4 U4               |   5 U5               |    70.53
    4 U4               |   3 U3               |   6 U6               |    70.53
    4 U4               |   5 U5               |   6 U6               |    70.53
    5 U5               |   4 U4               |   3 U3               |    70.53
    5 U5               |   6 U6               |   3 U3               |    70.53
    3 U3               |   5 U5               |   7 U7               |    85.26
    3 U3               |   5 U5               |   8 U8               |   122.87
    4 U4               |   5 U5               |   6 U6               |    70.53
    4 U4               |   5 U5               |   7 U7               |   121.85
    4 U4               |   5 U5               |   8 U8               |   104.88
    5 U5               |   6 U6               |   7 U7               |    68.28
    6 U6               |   5 U5               |   8 U8               |    68.28
    5 U5               |   8 U8               |   7 U7               |    68.28
    6 U6               |   3 U3               |   4 U4               |    70.53
    3 U3               |   6 U6               |   5 U5               |    70.53
    3 U3               |   6 U6               |   7 U7               |   104.88
    3 U3               |   6 U6               |   8 U8               |   121.85
    6 U6               |   5 U5               |   4 U4               |    70.53
    4 U4               |   6 U6               |   7 U7               |   122.87
    4 U4               |   6 U6               |   8 U8               |    85.26
    5 U5               |   6 U6               |   7 U7               |    68.28
    6 U6               |   5 U5               |   8 U8               |    68.28
    6 U6               |   7 U7               |   8 U8               |    68.28
    7 U7               |   6 U6               |   5 U5               |    68.28
    7 U7               |   8 U8               |   5 U5               |    68.28
    6 U6               |   7 U7               |   8 U8               |    68.28
    8 U8               |   5 U5               |   6 U6               |    68.28
    5 U5               |   8 U8               |   7 U7               |    68.28
    8 U8               |   7 U7               |   6 U6               |    68.28
 ------------------------------------------------------------------------------
                            number of included internuclear angles:         55
 ==============================================================================



          **********************************************************
          *                                                        *
          *                   NWPW BAND Calculation                *
          *                                                        *
          *  [(bundled Grassman/Stiefel manifold implementation)]  *
          *                                                        *
          *         [ NorthWest Chemistry implementation ]         *
          *                                                        *
          *                version #1.10   01/31/03                *
          *                                                        *
          *  A pseudopotential plane-wave band structure program   *
          *  with Brillouin zone sampling for optimizing crystals, *
          *  slabs, and polymers.  Developed by Eric J. Bylaska    *
          *  , Edoardo Apra, and Patrick Nichols.                  *
          *                                                        *
          **********************************************************
     >>>  JOB STARTED       AT Sat Mar 16 20:40:42 2013  <<<
          ================ input data ========================

 input psi filename:./perm/U8H-110-ctr.movecs

 number of processors used:             288
 processor grid           :  36 x   1 x   8
 parallel mapping         :     2d  hilbert

 options:
      boundary conditions  = periodic    (version3)
      electron spin        = unrestricted
      exchange-correlation = PBE96 (White and Bird) parameterization

 elements involved in the cluster:
      1: U     core charge:14.0  lmax=3
             comment    : Parameterized (J.Chem. Phys. vol 128, 124507 (2008)) Troullier-Martins psp
             pseudpotential type            :   0
             highest angular component      :   3
             local potential used           :   0
             number of non-local projections:  15
             cutoff =   1.421   1.602   2.400   1.250
      2: H     core charge: 1.0  lmax=1
             comment    : Parameterized (Chem.Phys.Lett., vol 322, page 447) Hamman psp
             pseudpotential type            :   0
             highest angular component      :   1
             local potential used           :   1
             number of non-local projections:   1
             cutoff =   0.800   0.800

 total charge:   0.000

 atomic composition:
     U   :  8     H   :  1

 number of electrons: spin up=   57.00  spin down=   56.00 (fourier space)
 number of orbitals:  spin up=      57  spin down=      56 (fourier space)

 supercell:
      lattice:    a1=<   6.501   0.000   0.000 >
                  a2=<   0.000   9.194   0.000 >
                  a3=<   0.000   0.000  50.257 >
      reciprocal: b1=<   0.967   0.000  -0.000 >
                  b2=<  -0.000   0.683  -0.000 >
                  b3=<   0.000   0.000   0.125 >

      lattice:    a=   6.501    b=   9.194     c=  50.257
              alpha=  90.000 beta=  90.000 gamma=  90.000
      volume :     3003.6
      ewald summation: cut radius=    3.00  and  8
                        madelung=-3.45682194

 brillouin zone:
      number of zone points:     8
      weight=   0.125  ks=<   0.375   0.375   0.000 >, k=<   0.362   0.256  -0.000>
      weight=   0.125  ks=<   0.125   0.375   0.000 >, k=<   0.121   0.256  -0.000>
      weight=   0.125  ks=<  -0.125   0.375   0.000 >, k=<  -0.121   0.256  -0.000>
      weight=   0.125  ks=<   0.375  -0.375   0.000 >, k=<   0.362  -0.256  -0.000>
      weight=   0.125  ks=<   0.375   0.125   0.000 >, k=<   0.362   0.085  -0.000>
      weight=   0.125  ks=<   0.125   0.125   0.000 >, k=<   0.121   0.085  -0.000>
      weight=   0.125  ks=<   0.125  -0.125   0.000 >, k=<   0.121  -0.085  -0.000>
      weight=   0.125  ks=<   0.375  -0.125   0.000 >, k=<   0.362  -0.085  -0.000>

 computational grids:
      density     cutoff=134.521  fft=  36x  48x 360(   223609 waves     6211 per task)
      wavefnc   1 cutoff= 90.000  fft=  36x  48x 360(   122493 waves     3402 per task)
      wavefnc   2 cutoff= 90.000  fft=  36x  48x 360(   122404 waves     3400 per task)
      wavefnc   3 cutoff= 90.000  fft=  36x  48x 360(   122404 waves     3400 per task)
      wavefnc   4 cutoff= 90.000  fft=  36x  48x 360(   122493 waves     3402 per task)
      wavefnc   5 cutoff= 90.000  fft=  36x  48x 360(   122618 waves     3406 per task)
      wavefnc   6 cutoff= 90.000  fft=  36x  48x 360(   122427 waves     3400 per task)
      wavefnc   7 cutoff= 90.000  fft=  36x  48x 360(   122427 waves     3400 per task)
      wavefnc   8 cutoff= 90.000  fft=  36x  48x 360(   122618 waves     3406 per task)

 technical parameters:
      time step=      5.80     ficticious mass=  400000.0
      tolerance=.100E-06 (energy)   0.100E-06 (density)
      maximum iterations =      3000 (   10 inner    300 outer )



= energy calculation =


          ======== bundled Grassmann lmbfgs iteration ========
     >>>  ITERATION STARTED AT Sat Mar 16 20:44:36 2013  <<<
    iter.           Energy         DeltaE       DeltaRho 
    ------------------------------------------------------
      10   -0.4111259974E+03   -0.85734E-02    0.75756E-01
     -  10 steepest descent iterations performed
      20   -0.4111695912E+03   -0.20649E-02    0.91095E-03
      30   -0.4111755481E+03   -0.35157E-03    0.15002E-03
      40   -0.4111778204E+03   -0.12153E-03    0.45895E-04
      50   -0.4111789835E+03   -0.98631E-04    0.20345E-04
      60   -0.4111797110E+03   -0.54224E-04    0.15860E-04
      70   -0.4111801232E+03   -0.31978E-04    0.10056E-04
      80   -0.4111803973E+03   -0.25826E-04    0.74732E-05
      90   -0.4111805962E+03   -0.16097E-04    0.71033E-05
     100   -0.4111807323E+03   -0.11211E-04    0.61124E-05
     110   -0.4111808261E+03   -0.82492E-05    0.51104E-05
     120   -0.4111808942E+03   -0.58324E-05    0.47624E-05
     130   -0.4111809460E+03   -0.47196E-05    0.46122E-05
     140   -0.4111809885E+03   -0.38536E-05    0.47322E-05
     150   -0.4111810226E+03   -0.30836E-05    0.44797E-05
     160   -0.4111810512E+03   -0.27360E-05    0.43970E-05
     170   -0.4111810776E+03   -0.25974E-05    0.50710E-05
     180   -0.4111811011E+03   -0.21565E-05    0.52422E-05
     190   -0.4111811209E+03   -0.18307E-05    0.46995E-05
     200   -0.4111811381E+03   -0.15849E-05    0.44044E-05
     210   -0.4111811522E+03   -0.13185E-05    0.36627E-05
     220   -0.4111811641E+03   -0.11139E-05    0.32783E-05
     230   -0.4111811742E+03   -0.96567E-06    0.29522E-05
     240   -0.4111811835E+03   -0.87525E-06    0.31201E-05
     250   -0.4111811916E+03   -0.74478E-06    0.29188E-05
     260   -0.4111811986E+03   -0.67619E-06    0.26546E-05
     270   -0.4111812049E+03   -0.59008E-06    0.25552E-05
     280   -0.4111812104E+03   -0.52040E-06    0.23474E-05
     290   -0.4111812151E+03   -0.42820E-06    0.20071E-05
     300   -0.4111812192E+03   -0.37957E-06    0.17723E-05
     310   -0.4111812227E+03   -0.33121E-06    0.15716E-05
     320   -0.4111812259E+03   -0.31098E-06    0.14877E-05
     330   -0.4111812289E+03   -0.29603E-06    0.15863E-05
     340   -0.4111812317E+03   -0.27106E-06    0.14844E-05
     350   -0.4111812344E+03   -0.25381E-06    0.14601E-05
     360   -0.4111812368E+03   -0.23249E-06    0.13999E-05
     370   -0.4111812390E+03   -0.20296E-06    0.11646E-05
     380   -0.4111812409E+03   -0.18546E-06    0.10000E-05
     390   -0.4111812427E+03   -0.17283E-06    0.92475E-06
     400   -0.4111812443E+03   -0.15497E-06    0.85264E-06
     410   -0.4111812458E+03   -0.15160E-06    0.80648E-06
     420   -0.4111812473E+03   -0.14601E-06    0.84603E-06
     430   -0.4111812488E+03   -0.14500E-06    0.88974E-06
     440   -0.4111812502E+03   -0.13985E-06    0.94695E-06
     450   -0.4111812516E+03   -0.14226E-06    0.10372E-05
     -  10 steepest descent iterations performed
     460   -0.4111812524E+03   -0.96913E-07    0.39303E-08
  *** tolerance ok.    iteration terminated.
     >>>  ITERATION ENDED   AT Sat Mar 16 21:25:46 2013  <<<


          =============  summary of results  =================

 number of electrons: spin up=   57.00000  down=   56.00000 (real space)

 total     energy    :  -0.4111812524E+03 (   -0.45687E+02/ion)
 total orbital energy:  -0.3089609892E+02 (   -0.27342E+00/electron)
 hartree   energy    :   0.2507814009E+04 (    0.22193E+02/electron)
 exc-corr  energy    :  -0.5311809511E+02 (   -0.47007E+00/electron)
 ion-ion   energy    :   0.2111439662E+04 (    0.23460E+03/ion)

 K.S. kinetic energy :   0.1937057374E+03 (    0.17142E+01/electron)
 K.S. V_l  energy    :  -0.6386057828E+03 (   -0.56514E+01/electron)
 K.S. V_nl energy    :  -0.6767773492E+02 (   -0.59892E+00/electron)
 K.S. V_Hart energy  :   0.5015628017E+04 (    0.44386E+02/electron)
 K.S. V_xc energy    :  -0.6920728786E+02 (   -0.61245E+00/electron)
 K.S. V_so energy    :   0.0000000000E+00 (    0.00000E+00/electron)
 Virial Coefficient  :   0.2188957988E+02

 Brillouin zone point:      1
    weight=  0.125000
    k     =<   0.375   0.375   0.000> . <b1,b2,b3> 
          =<   0.362   0.256  -0.000>

 orbital energies:
     0.2516855E+00 (   6.849eV) occ=1.000
     0.2464241E+00 (   6.706eV) occ=1.000     0.2502291E+00 (   6.809eV) occ=1.000
     0.2436216E+00 (   6.629eV) occ=1.000     0.2462498E+00 (   6.701eV) occ=1.000
     0.2420700E+00 (   6.587eV) occ=1.000     0.2415153E+00 (   6.572eV) occ=1.000
     0.2403403E+00 (   6.540eV) occ=1.000     0.2396616E+00 (   6.522eV) occ=1.000
     0.2372838E+00 (   6.457eV) occ=1.000     0.2385722E+00 (   6.492eV) occ=1.000
     0.2346199E+00 (   6.384eV) occ=1.000     0.2347318E+00 (   6.387eV) occ=1.000
     0.2334040E+00 (   6.351eV) occ=1.000     0.2341310E+00 (   6.371eV) occ=1.000
     0.2312569E+00 (   6.293eV) occ=1.000     0.2325876E+00 (   6.329eV) occ=1.000
     0.2281032E+00 (   6.207eV) occ=1.000     0.2308242E+00 (   6.281eV) occ=1.000
     0.2210575E+00 (   6.015eV) occ=1.000     0.2259739E+00 (   6.149eV) occ=1.000
     0.2181574E+00 (   5.936eV) occ=1.000     0.2194423E+00 (   5.971eV) occ=1.000
     0.2167349E+00 (   5.898eV) occ=1.000     0.2179108E+00 (   5.930eV) occ=1.000
     0.2136932E+00 (   5.815eV) occ=1.000     0.2169371E+00 (   5.903eV) occ=1.000
     0.2110115E+00 (   5.742eV) occ=1.000     0.2119106E+00 (   5.766eV) occ=1.000
     0.2102315E+00 (   5.721eV) occ=1.000     0.2107227E+00 (   5.734eV) occ=1.000
     0.1910527E+00 (   5.199eV) occ=1.000     0.1931685E+00 (   5.256eV) occ=1.000
     0.1784793E+00 (   4.857eV) occ=1.000     0.1806201E+00 (   4.915eV) occ=1.000
     0.1729732E+00 (   4.707eV) occ=1.000     0.1763006E+00 (   4.797eV) occ=1.000
     0.1654337E+00 (   4.502eV) occ=1.000     0.1675051E+00 (   4.558eV) occ=1.000
     0.1585701E+00 (   4.315eV) occ=1.000     0.1586889E+00 (   4.318eV) occ=1.000
     0.1521760E+00 (   4.141eV) occ=1.000     0.1513090E+00 (   4.117eV) occ=1.000
     0.1475810E+00 (   4.016eV) occ=1.000     0.1492885E+00 (   4.062eV) occ=1.000
     0.1349114E+00 (   3.671eV) occ=1.000     0.1349742E+00 (   3.673eV) occ=1.000
     0.9419603E-01 (   2.563eV) occ=1.000     0.8464214E-01 (   2.303eV) occ=1.000
    -0.3053330E+00 (  -8.309eV) occ=1.000    -0.3007921E+00 (  -8.185eV) occ=1.000
    -0.3133182E+00 (  -8.526eV) occ=1.000    -0.3089303E+00 (  -8.406eV) occ=1.000
    -0.3187397E+00 (  -8.673eV) occ=1.000    -0.3141079E+00 (  -8.547eV) occ=1.000
    -0.3266996E+00 (  -8.890eV) occ=1.000    -0.3221489E+00 (  -8.766eV) occ=1.000
    -0.3277894E+00 (  -8.920eV) occ=1.000    -0.3257047E+00 (  -8.863eV) occ=1.000
    -0.3408857E+00 (  -9.276eV) occ=1.000    -0.3357394E+00 (  -9.136eV) occ=1.000
    -0.3450985E+00 (  -9.391eV) occ=1.000    -0.3442030E+00 (  -9.366eV) occ=1.000
    -0.3604317E+00 (  -9.808eV) occ=1.000    -0.3597444E+00 (  -9.789eV) occ=1.000
    -0.3734596E+00 ( -10.162eV) occ=1.000    -0.3713076E+00 ( -10.104eV) occ=1.000
    -0.3840545E+00 ( -10.451eV) occ=1.000    -0.3837034E+00 ( -10.441eV) occ=1.000