----------------------------------------
Begin Torque Prologue (Tue Apr  9 15:26:20 2013)
Job ID:           570220.taubm1.campuscluster.illinois.edu
Username:         davis68
Group:            npre_rizwan
Job Name:         U8O-110-ctr
Limits:           ncpus=1,neednodes=24:ppn=12,nodes=24:ppn=12,walltime=06:00:00
Job Queue:        cse
Account:          NPRE
Nodes:            taub281 taub308 taub323 taub336 taub337 taub338 taub339 taub354 taub356 taub357 taub362 taub367 taub372 taub373 taub374 taub378 taub390 taub393 taub430 taub458 taub460 taub469 taub487 taub504
End Torque Prologue
----------------------------------------
 argument  1 = ./U8O-110-ctr.nw



============================== echo of input deck ==============================
title "Gamma-uranium (100) slab relaxation"
echo

permanent_dir ./perm
scratch_dir   ./scratch

restart U8O-110-ctr

memory 2500 mb

nwpw
  # Real-space discretization
  simulation_cell
    ngrid 36 48 360
  end

  # Spin multiplicity---quenched to 1 in the solid state
  mult 3

  # Band, k-point sampling, and parallelism
  monkhorst-pack 4 4 1
  np_dimensions 8 12 8
  mapping 2

  # Periodicity considerations
  ewald_rcut 3.0
  ewald_ncut 8

  # Simulation parameters
  #restricted    # DFT||ODFT||RESTRICTED||UNRESTRICTED
  xc pbe96
  cutoff 90.0
  loop 10 300
end
set nwpw:minimizer      2
set nwpw:lcao_skip      .true.
set nwpw:kbpp_ray       .true.

#       (110) gamma-uranium surface with surface displacements:	15.30%	and O displacement of	1.500	Å
geometry	center	noautosym	noautoz	print
	system	crystal
	lat_a	3.440
	lat_b	4.865
	lat_c	26.595
	alpha	90.0d0
	beta	90.0d0
	gamma	90.0d0
	end
	U1	0.00000	0.00000	0.66893
	U2	0.50000	0.50000	0.66893
	U3	0.00000	0.50000	0.59146
	U4	0.50000	0.00000	0.59146
	U5	0.00000	0.00000	0.50000
	U6	0.50000	0.50000	0.50000
	U7	0.00000	0.50000	0.42253
	U8	0.50000	0.00000	0.42253
	O1	0.50000	0.00000	0.72534
end
task band energy

#       (110) gamma-uranium surface with surface displacements:	15.30%	and O displacement of	1.750	Å
geometry	center	noautosym	noautoz	print
	system	crystal
	lat_a	3.440
	lat_b	4.865
	lat_c	26.595
	alpha	90.0d0
	beta	90.0d0
	gamma	90.0d0
	end
	U1	0.00000	0.00000	0.66893
	U2	0.50000	0.50000	0.66893
	U3	0.00000	0.50000	0.59146
	U4	0.50000	0.00000	0.59146
	U5	0.00000	0.00000	0.50000
	U6	0.50000	0.50000	0.50000
	U7	0.00000	0.50000	0.42253
	U8	0.50000	0.00000	0.42253
	O1	0.50000	0.00000	0.73474
end
task band energy

# A.M.D.G.
================================================================================


                                         
                                         


             Northwest Computational Chemistry Package (NWChem) 6.1.1
             --------------------------------------------------------


                    Environmental Molecular Sciences Laboratory
                       Pacific Northwest National Laboratory
                                Richland, WA 99352

                              Copyright (c) 1994-2012
                       Pacific Northwest National Laboratory
                            Battelle Memorial Institute

             NWChem is an open-source computational chemistry package
                        distributed under the terms of the
                      Educational Community License (ECL) 2.0
             A copy of the license is included with this distribution
                              in the LICENSE.TXT file

                                  ACKNOWLEDGMENT
                                  --------------

            This software and its documentation were developed at the
            EMSL at Pacific Northwest National Laboratory, a multiprogram
            national laboratory, operated for the U.S. Department of Energy
            by Battelle under Contract Number DE-AC05-76RL01830. Support
            for this work was provided by the Department of Energy Office
            of Biological and Environmental Research, Office of Basic
            Energy Sciences, and the Office of Advanced Scientific Computing.


           Job information
           ---------------

    hostname        = taub504
    program         = /home/davis68/bin/nwchem-dev
    date            = Tue Apr  9 15:27:36 2013

    compiled        = Wed_Oct_03_09:41:00_2012
    source          = /home/davis68/nwchem/nwchem-src-2012-Aug-27/
    nwchem branch   = Development
    nwchem revision = 22805
    ga revision     = 10079
    input           = ./U8O-110-ctr.nw
    prefix          = U8O-110-ctr.
    data base       = ./perm/U8O-110-ctr.db
    status          = restart
    nproc           =      288
    time left       =     -1s



           Memory information
           ------------------

    heap     =   81920001 doubles =    625.0 Mbytes
    stack    =   81920001 doubles =    625.0 Mbytes
    global   =  163840000 doubles =   1250.0 Mbytes (distinct from heap & stack)
    total    =  327680002 doubles =   2500.0 Mbytes
    verify   = yes
    hardfail = no 


           Directory information
           ---------------------

  0 permanent = ./perm
  0 scratch   = ./scratch


           Previous task information
           -------------------------

    Theory    = band                            
    Operation = energy                        
    Status    = fail                          
    Qmmm      = F
    Ignore    = F


           Geometries in the database
           --------------------------

       Name                              Natoms  Last Modified
       --------------------------------  ------  ------------------------
    1  geometry                               9  Sat Apr  6 12:51:49 2013  
    2  pspwgeometry                           9  Sat Apr  6 12:55:17 2013  

  The geometry named "geometry" is the default for restart



           Basis sets in the database
           --------------------------

  There are no basis sets in the database



                                NWChem Input Module
                                -------------------


                        Gamma-uranium (100) slab relaxation
                        -----------------------------------

  !!!!!!!!!  geom_3d NEEDS TESTING !!!!!!!!!! 


                             Geometry "geometry" -> ""
                             -------------------------

 Output coordinates in angstroms (scale by  1.889725989 to convert to a.u.)

  No.       Tag          Charge          X              Y              Z
 ---- ---------------- ---------- -------------- -------------- --------------
    1 U1                  92.0000     0.00000000     0.00000000    17.79019335
    2 U2                  92.0000     1.72000000     2.43250000    17.79019335
    3 U3                  92.0000     0.00000000     2.43250000    15.72987870
    4 U4                  92.0000     1.72000000     0.00000000    15.72987870
    5 U5                  92.0000     0.00000000     0.00000000    13.29750000
    6 U6                  92.0000     1.72000000     2.43250000    13.29750000
    7 U7                  92.0000     0.00000000     2.43250000    11.23718535
    8 U8                  92.0000     1.72000000     0.00000000    11.23718535
    9 O1                   8.0000     1.72000000     0.00000000    19.29041730

      Lattice Parameters 
      ------------------ 

      lattice vectors in angstroms (scale by  1.889725989 to convert to a.u.)

      a1=<   3.440   0.000   0.000 >
      a2=<   0.000   4.865   0.000 >
      a3=<   0.000   0.000  26.595 >
      a=       3.440 b=      4.865 c=      26.595
      alpha=  90.000 beta=  90.000 gamma=  90.000
      omega=   445.1

      reciprocal lattice vectors in a.u.

      b1=<   0.967   0.000  -0.000 >
      b2=<  -0.000   0.683  -0.000 >
      b3=<   0.000   0.000   0.125 >

      Atomic Mass 
      ----------- 

      U1               238.050800
      U2               238.050800
      U3               238.050800
      U4               238.050800
      U5               238.050800
      U6               238.050800
      U7               238.050800
      U8               238.050800
      O1                15.994910


 ==============================================================================
                                internuclear distances
 ------------------------------------------------------------------------------
       center one      |      center two      | atomic units |  angstroms
 ------------------------------------------------------------------------------
    2 U2               |   1 U1               |     5.62982  |     2.97917
    3 U3               |   1 U1               |     6.02403  |     3.18778
    3 U3               |   2 U2               |     5.07183  |     2.68390
    4 U4               |   1 U1               |     5.07183  |     2.68390
    4 U4               |   2 U2               |     6.02403  |     3.18778
    4 U4               |   3 U3               |     5.62982  |     2.97917
    5 U5               |   3 U3               |     6.50064  |     3.43999
    5 U5               |   4 U4               |     5.62963  |     2.97907
    6 U6               |   3 U3               |     5.62963  |     2.97907
    6 U6               |   4 U4               |     6.50064  |     3.43999
    6 U6               |   5 U5               |     5.62982  |     2.97917
    7 U7               |   5 U5               |     6.02403  |     3.18778
    7 U7               |   6 U6               |     5.07183  |     2.68390
    8 U8               |   5 U5               |     5.07183  |     2.68390
    8 U8               |   6 U6               |     6.02403  |     3.18778
    8 U8               |   7 U7               |     5.62982  |     2.97917
    9 O1               |   1 U1               |     4.31300  |     2.28234
    9 O1               |   2 U2               |     5.40069  |     2.85792
 ------------------------------------------------------------------------------
                         number of included internuclear distances:         18
 ==============================================================================



 ==============================================================================
                                 internuclear angles
 ------------------------------------------------------------------------------
        center 1       |       center 2       |       center 3       |  degrees
 ------------------------------------------------------------------------------
    1 U1               |   2 U2               |   3 U3               |    68.28
    2 U2               |   1 U1               |   4 U4               |    68.28
    1 U1               |   9 O1               |   2 U2               |    69.82
    1 U1               |   4 U4               |   3 U3               |    68.28
    3 U3               |   1 U1               |   9 O1               |   115.14
    4 U4               |   1 U1               |   9 O1               |    91.24
    1 U1               |   2 U2               |   3 U3               |    68.28
    2 U2               |   1 U1               |   4 U4               |    68.28
    2 U2               |   9 O1               |   1 U1               |    69.82
    2 U2               |   3 U3               |   4 U4               |    68.28
    3 U3               |   2 U2               |   9 O1               |   113.76
    4 U4               |   2 U2               |   9 O1               |    71.93
    3 U3               |   2 U2               |   1 U1               |    68.28
    3 U3               |   4 U4               |   1 U1               |    68.28
    1 U1               |   3 U3               |   5 U5               |    85.26
    1 U1               |   3 U3               |   6 U6               |   121.85
    2 U2               |   3 U3               |   4 U4               |    68.28
    2 U2               |   3 U3               |   5 U5               |   122.87
    2 U2               |   3 U3               |   6 U6               |   104.88
    3 U3               |   4 U4               |   5 U5               |    70.53
    4 U4               |   3 U3               |   6 U6               |    70.53
    3 U3               |   6 U6               |   5 U5               |    70.53
    4 U4               |   1 U1               |   2 U2               |    68.28
    1 U1               |   4 U4               |   3 U3               |    68.28
    1 U1               |   4 U4               |   5 U5               |   104.88
    1 U1               |   4 U4               |   6 U6               |   122.87
    4 U4               |   3 U3               |   2 U2               |    68.28
    2 U2               |   4 U4               |   5 U5               |   121.85
    2 U2               |   4 U4               |   6 U6               |    85.26
    3 U3               |   4 U4               |   5 U5               |    70.53
    4 U4               |   3 U3               |   6 U6               |    70.53
    4 U4               |   5 U5               |   6 U6               |    70.53
    5 U5               |   4 U4               |   3 U3               |    70.53
    5 U5               |   6 U6               |   3 U3               |    70.53
    3 U3               |   5 U5               |   7 U7               |    85.26
    3 U3               |   5 U5               |   8 U8               |   122.87
    4 U4               |   5 U5               |   6 U6               |    70.53
    4 U4               |   5 U5               |   7 U7               |   121.85
    4 U4               |   5 U5               |   8 U8               |   104.88
    5 U5               |   6 U6               |   7 U7               |    68.28
    6 U6               |   5 U5               |   8 U8               |    68.28
    5 U5               |   8 U8               |   7 U7               |    68.28
    6 U6               |   3 U3               |   4 U4               |    70.53
    3 U3               |   6 U6               |   5 U5               |    70.53
    3 U3               |   6 U6               |   7 U7               |   104.88
    3 U3               |   6 U6               |   8 U8               |   121.85
    6 U6               |   5 U5               |   4 U4               |    70.53
    4 U4               |   6 U6               |   7 U7               |   122.87
    4 U4               |   6 U6               |   8 U8               |    85.26
    5 U5               |   6 U6               |   7 U7               |    68.28
    6 U6               |   5 U5               |   8 U8               |    68.28
    6 U6               |   7 U7               |   8 U8               |    68.28
    7 U7               |   6 U6               |   5 U5               |    68.28
    7 U7               |   8 U8               |   5 U5               |    68.28
    6 U6               |   7 U7               |   8 U8               |    68.28
    8 U8               |   5 U5               |   6 U6               |    68.28
    5 U5               |   8 U8               |   7 U7               |    68.28
    8 U8               |   7 U7               |   6 U6               |    68.28
    1 U1               |   9 O1               |   2 U2               |    69.82
 ------------------------------------------------------------------------------
                            number of included internuclear angles:         59
 ==============================================================================



          **********************************************************
          *                                                        *
          *                   NWPW BAND Calculation                *
          *                                                        *
          *  [(bundled Grassman/Stiefel manifold implementation)]  *
          *                                                        *
          *         [ NorthWest Chemistry implementation ]         *
          *                                                        *
          *                version #1.10   01/31/03                *
          *                                                        *
          *  A pseudopotential plane-wave band structure program   *
          *  with Brillouin zone sampling for optimizing crystals, *
          *  slabs, and polymers.  Developed by Eric J. Bylaska    *
          *  , Edoardo Apra, and Patrick Nichols.                  *
          *                                                        *
          **********************************************************
     >>>  JOB STARTED       AT Tue Apr  9 15:27:37 2013  <<<
          ================ input data ========================

 input psi filename:./perm/U8O-110-ctr.movecs

 number of processors used:             288
 processor grid           :  36 x   1 x   8
 parallel mapping         :     2d  hilbert

 options:
      boundary conditions  = periodic    (version3)
      electron spin        = unrestricted
      exchange-correlation = PBE96 (White and Bird) parameterization

 elements involved in the cluster:
      1: U     core charge:14.0  lmax=3
             comment    : Parameterized (J.Chem. Phys. vol 128, 124507 (2008)) Troullier-Martins psp
             pseudpotential type            :   0
             highest angular component      :   3
             local potential used           :   0
             number of non-local projections:  15
             cutoff =   1.421   1.602   2.400   1.250
      2: O     core charge: 6.0  lmax=2
             comment    : Parameterized (Chem.Phys.Lett., vol 322, page 447) Hamman psp
             pseudpotential type            :   0
             highest angular component      :   2
             local potential used           :   2
             number of non-local projections:   4
             cutoff =   0.700   0.700   0.700

 total charge:   0.000

 atomic composition:
     U   :  8     O   :  1

 number of electrons: spin up=   60.00  spin down=   58.00 (fourier space)
 number of orbitals:  spin up=      60  spin down=      58 (fourier space)

 supercell:
      lattice:    a1=<   6.501   0.000   0.000 >
                  a2=<   0.000   9.194   0.000 >
                  a3=<   0.000   0.000  50.257 >
      reciprocal: b1=<   0.967   0.000  -0.000 >
                  b2=<  -0.000   0.683  -0.000 >
                  b3=<   0.000   0.000   0.125 >

      lattice:    a=   6.501    b=   9.194     c=  50.257
              alpha=  90.000 beta=  90.000 gamma=  90.000
      volume :     3003.6
      ewald summation: cut radius=    3.00  and  8
                        madelung=-3.45682194

 brillouin zone:
      number of zone points:     8
      weight=   0.125  ks=<   0.375   0.375   0.000 >, k=<   0.362   0.256  -0.000>
      weight=   0.125  ks=<   0.125   0.375   0.000 >, k=<   0.121   0.256  -0.000>
      weight=   0.125  ks=<  -0.125   0.375   0.000 >, k=<  -0.121   0.256  -0.000>
      weight=   0.125  ks=<   0.375  -0.375   0.000 >, k=<   0.362  -0.256  -0.000>
      weight=   0.125  ks=<   0.375   0.125   0.000 >, k=<   0.362   0.085  -0.000>
      weight=   0.125  ks=<   0.125   0.125   0.000 >, k=<   0.121   0.085  -0.000>
      weight=   0.125  ks=<   0.125  -0.125   0.000 >, k=<   0.121  -0.085  -0.000>
      weight=   0.125  ks=<   0.375  -0.125   0.000 >, k=<   0.362  -0.085  -0.000>

 computational grids:
      density     cutoff=134.521  fft=  36x  48x 360(   223609 waves     6211 per task)
      wavefnc   1 cutoff= 90.000  fft=  36x  48x 360(   122493 waves     3402 per task)
      wavefnc   2 cutoff= 90.000  fft=  36x  48x 360(   122404 waves     3400 per task)
      wavefnc   3 cutoff= 90.000  fft=  36x  48x 360(   122404 waves     3400 per task)
      wavefnc   4 cutoff= 90.000  fft=  36x  48x 360(   122493 waves     3402 per task)
      wavefnc   5 cutoff= 90.000  fft=  36x  48x 360(   122618 waves     3406 per task)
      wavefnc   6 cutoff= 90.000  fft=  36x  48x 360(   122427 waves     3400 per task)
      wavefnc   7 cutoff= 90.000  fft=  36x  48x 360(   122427 waves     3400 per task)
      wavefnc   8 cutoff= 90.000  fft=  36x  48x 360(   122618 waves     3406 per task)

 technical parameters:
      time step=      5.80     ficticious mass=  400000.0
      tolerance=.100E-06 (energy)   0.100E-06 (density)
      maximum iterations =      3000 (   10 inner    300 outer )



= energy calculation =


          ======== bundled Grassmann lmbfgs iteration ========
     >>>  ITERATION STARTED AT Tue Apr  9 15:31:35 2013  <<<
    iter.           Energy         DeltaE       DeltaRho 
    ------------------------------------------------------
      10   -0.4265826082E+03   -0.16523E-01    0.67350E+00
     -  10 steepest descent iterations performed
      20   -0.4266277429E+03   -0.49453E-03    0.26458E-02
      30   -0.4266315968E+03   -0.19424E-03    0.27089E-03
      40   -0.4266327165E+03   -0.66765E-04    0.52236E-04
      50   -0.4266331592E+03   -0.30114E-04    0.16308E-04
      60   -0.4266333831E+03   -0.18242E-04    0.12804E-04
      70   -0.4266335307E+03   -0.11865E-04    0.96952E-05
      80   -0.4266336271E+03   -0.87107E-05    0.71195E-05
      90   -0.4266336964E+03   -0.63561E-05    0.64345E-05
     100   -0.4266337503E+03   -0.48553E-05    0.66622E-05
     110   -0.4266337958E+03   -0.43790E-05    0.73320E-05
     120   -0.4266338362E+03   -0.37658E-05    0.83603E-05
     130   -0.4266338710E+03   -0.33550E-05    0.89235E-05
     140   -0.4266339029E+03   -0.31672E-05    0.10326E-04
     150   -0.4266339344E+03   -0.31631E-05    0.13188E-04
     160   -0.4266339665E+03   -0.32137E-05    0.16981E-04
     -  10 steepest descent iterations performed
     170   -0.4266339930E+03   -0.17433E-05    0.50084E-06
     180   -0.4266340099E+03   -0.17083E-05    0.13569E-05
     190   -0.4266340274E+03   -0.18413E-05    0.30293E-05
     -  10 steepest descent iterations performed
     200   -0.4266340422E+03   -0.96802E-06    0.46828E-06
     210   -0.4266340518E+03   -0.96214E-06    0.12788E-05
     220   -0.4266340620E+03   -0.10703E-05    0.29722E-05
     -  10 steepest descent iterations performed
     230   -0.4266340748E+03   -0.83763E-06    0.41829E-06
     240   -0.4266340831E+03   -0.83928E-06    0.11797E-05
     -  10 steepest descent iterations performed
     250   -0.4266340924E+03   -0.93966E-06    0.92780E-06
     -  10 steepest descent iterations performed
     260   -0.4266340992E+03   -0.60155E-06    0.55904E-06
     270   -0.4266341161E+03   -0.21443E-05    0.14246E-04
     -  10 steepest descent iterations performed
     280   -0.4266341340E+03   -0.66126E-06    0.24418E-06
     290   -0.4266341387E+03   -0.43877E-06    0.43865E-06
     300   -0.4266341492E+03   -0.91913E-06    0.50826E-05
     -  10 steepest descent iterations performed
     310   -0.4266341617E+03   -0.45471E-06    0.41866E-06
     320   -0.4266341675E+03   -0.74275E-06    0.98161E-06
     -  10 steepest descent iterations performed
     330   -0.4266341757E+03   -0.61182E-06    0.85438E-06
     340   -0.4266341829E+03   -0.82596E-06    0.23464E-05
     -  10 steepest descent iterations performed
     350   -0.4266341939E+03   -0.81506E-06    0.60466E-06
     360   -0.4266341980E+03   -0.42002E-06    0.55745E-06
     370   -0.4266342656E+03   -0.58827E-05    0.29692E-03
     -  10 steepest descent iterations performed
     380   -0.4266343278E+03   -0.13951E-05    0.73547E-06
     390   -0.4266343373E+03   -0.80318E-06    0.40108E-06
     400   -0.4266343417E+03   -0.43763E-06    0.40574E-06
     410   -0.4266343644E+03   -0.49023E-05    0.32926E-04
     -  10 steepest descent iterations performed
     420   -0.4266343878E+03   -0.53063E-06    0.38788E-06
     430   -0.4266343939E+03   -0.54286E-06    0.67845E-06
     -  10 steepest descent iterations performed
     440   -0.4266344009E+03   -0.86118E-06    0.90037E-06
     -  10 steepest descent iterations performed
     450   -0.4266344073E+03   -0.31901E-06    0.55400E-06
     460   -0.4266344318E+03   -0.23408E-05    0.37640E-04
     -  10 steepest descent iterations performed
     470   -0.4266344584E+03   -0.61244E-06    0.35259E-06
     480   -0.4266344628E+03   -0.51294E-06    0.46616E-06
     490   -0.4266344863E+03   -0.28611E-05    0.32346E-04
     -  10 steepest descent iterations performed
     500   -0.4266345117E+03   -0.77472E-06    0.51121E-06
     510   -0.4266345164E+03   -0.46198E-06    0.36285E-06
     520   -0.4266345337E+03   -0.19552E-05    0.16343E-04
     -  10 steepest descent iterations performed
     530   -0.4266345527E+03   -0.52655E-06    0.35189E-06
     540   -0.4266345587E+03   -0.86966E-06    0.93314E-06
     -  10 steepest descent iterations performed
     550   -0.4266345668E+03   -0.73034E-06    0.83475E-06
     560   -0.4266345816E+03   -0.17536E-05    0.11074E-04
     -  10 steepest descent iterations performed
     570   -0.4266345993E+03   -0.83799E-06    0.39498E-06
     580   -0.4266346045E+03   -0.55321E-06    0.66273E-06
     590   -0.4266346289E+03   -0.40084E-05    0.31323E-04
     -  10 steepest descent iterations performed
     600   -0.4266346557E+03   -0.60131E-06    0.44971E-06
     610   -0.4266346620E+03   -0.70671E-06    0.77999E-06
     -  10 steepest descent iterations performed
     620   -0.4266346708E+03   -0.88752E-06    0.12987E-05
     -  10 steepest descent iterations performed
     630   -0.4266346785E+03   -0.49241E-06    0.64174E-06
     640   -0.4266347081E+03   -0.27393E-05    0.45403E-04
     -  10 steepest descent iterations performed
     650   -0.4266347393E+03   -0.83011E-06    0.52480E-06
     660   -0.4266347440E+03   -0.57383E-06    0.35092E-06
     670   -0.4266347608E+03   -0.23212E-05    0.13501E-04
     -  10 steepest descent iterations performed
     680   -0.4266347798E+03   -0.44747E-06    0.35494E-06
     690   -0.4266347873E+03   -0.90666E-06    0.18929E-05
     -  10 steepest descent iterations performed
     700   -0.4266347972E+03   -0.89217E-06    0.78855E-06
     710   -0.4266348076E+03   -0.13443E-05    0.44271E-05
     -  10 steepest descent iterations performed
     720   -0.4266348220E+03   -0.67531E-06    0.66104E-06
     730   -0.4266348273E+03   -0.60009E-06    0.10275E-05
     740   -0.4266349251E+03   -0.51320E-05    0.53189E-03
     -  10 steepest descent iterations performed
     750   -0.4266350083E+03   -0.10130E-05    0.34733E-06
     760   -0.4266350156E+03   -0.78832E-06    0.30932E-06
     770   -0.4266350212E+03   -0.60814E-06    0.81290E-06
     780   -0.4266350463E+03   -0.56254E-05    0.36939E-04
     -  10 steepest descent iterations performed
     790   -0.4266350696E+03   -0.66657E-06    0.23770E-06
     800   -0.4266350761E+03   -0.55480E-06    0.72017E-06
     810   -0.4266350830E+03   -0.61746E-06    0.21165E-05
     -  10 steepest descent iterations performed
     820   -0.4266350921E+03   -0.68721E-06    0.59020E-06
     -  10 steepest descent iterations performed
     830   -0.4266350971E+03   -0.38568E-06    0.46872E-06
     840   -0.4266351325E+03   -0.63077E-05    0.93002E-04
     -  10 steepest descent iterations performed
     850   -0.4266351653E+03   -0.46857E-06    0.13316E-06
     860   -0.4266351687E+03   -0.37634E-06    0.22023E-06
     870   -0.4266351768E+03   -0.44623E-06    0.35829E-05
     -  10 steepest descent iterations performed
     880   -0.4266351853E+03   -0.44949E-06    0.41408E-06
     -  10 steepest descent iterations performed
     890   -0.4266351897E+03   -0.37546E-06    0.58703E-06
     900   -0.4266352099E+03   -0.33110E-05    0.34559E-04
     -  10 steepest descent iterations performed
     910   -0.4266352289E+03   -0.55774E-06    0.12773E-06
     920   -0.4266352320E+03   -0.21136E-06    0.14902E-06
     930   -0.4266352376E+03   -0.63847E-06    0.20725E-05
     -  10 steepest descent iterations performed
     940   -0.4266352435E+03   -0.27484E-06    0.20190E-06
     950   -0.4266352477E+03   -0.63103E-06    0.11357E-05
     -  10 steepest descent iterations performed
     960   -0.4266352527E+03   -0.26834E-06    0.27677E-06
     970   -0.4266352561E+03   -0.37261E-06    0.80505E-06
     -  10 steepest descent iterations performed
     980   -0.4266352612E+03   -0.37106E-06    0.31730E-06
     990   -0.4266352641E+03   -0.38250E-06    0.65928E-06
     -  10 steepest descent iterations performed
    1000   -0.4266352688E+03   -0.26887E-06    0.26882E-06
    1010   -0.4266352718E+03   -0.30149E-06    0.65246E-06
     -  10 steepest descent iterations performed
    1020   -0.4266352765E+03   -0.35524E-06    0.30229E-06
     -  10 steepest descent iterations performed
    1030   -0.4266352802E+03   -0.50108E-06    0.73003E-06
     -  10 steepest descent iterations performed
    1040   -0.4266352836E+03   -0.24453E-06    0.19386E-06
    1050   -0.4266352889E+03   -0.31565E-06    0.27629E-05
     -  10 steepest descent iterations performed
    1060   -0.4266352951E+03   -0.21928E-06    0.16480E-06
    1070   -0.4266352969E+03   -0.22885E-06    0.24850E-06
     -  10 steepest descent iterations performed
    1080   -0.4266353001E+03   -0.30629E-06    0.29262E-06
     -  10 steepest descent iterations performed
    1090   -0.4266353029E+03   -0.29853E-06    0.32621E-06
    1100   -0.4266353148E+03   -0.23781E-05    0.18558E-04
     -  10 steepest descent iterations performed
    1110   -0.4266353265E+03   -0.19596E-06    0.10072E-06
    1120   -0.4266353270E+03   -0.84779E-07    0.50912E-08
  *** tolerance ok.    iteration terminated.
     >>>  ITERATION ENDED   AT Tue Apr  9 17:26:51 2013  <<<


          =============  summary of results  =================

 number of electrons: spin up=   60.00000  down=   58.00000 (real space)

 total     energy    :  -0.4266353270E+03 (   -0.47404E+02/ion)
 total orbital energy:  -0.3332323859E+02 (   -0.28240E+00/electron)
 hartree   energy    :   0.2603078982E+04 (    0.22060E+02/electron)
 exc-corr  energy    :  -0.5614796840E+02 (   -0.47583E+00/electron)
 ion-ion   energy    :   0.2192763136E+04 (    0.24364E+03/ion)
