----------------------------------------
Begin Torque Prologue (Mon Mar 18 12:36:58 2013)
Job ID:           389269.taubm1.campuscluster.illinois.edu
Username:         davis68
Group:            npre_rizwan
Job Name:         U8O-110-top
Limits:           ncpus=1,neednodes=24:ppn=12,nodes=24:ppn=12,walltime=16:00:00
Job Queue:        cse
Account:          NPRE
Nodes:            taub378 taub379 taub380 taub381 taub382 taub384 taub385 taub386 taub387 taub388 taub390 taub391 taub399 taub403 taub405 taub406 taub409 taub410 taub437 taub439 taub440 taub490 taub508 taub510
End Torque Prologue
----------------------------------------
 argument  1 = ./U8O-110-top.nw



============================== echo of input deck ==============================
title "Gamma-uranium (100) slab relaxation"
echo

permanent_dir ./perm
scratch_dir   ./scratch

start U8O-110-top

memory 2500 mb

nwpw
  # Real-space discretization
  simulation_cell
    ngrid 36 48 360
  end

  # Spin multiplicity---quenched to 1 in the solid state
  mult 3

  # Band, k-point sampling, and parallelism
  monkhorst-pack 4 4 1
  np_dimensions 8 12 8
  mapping 2

  # Periodicity considerations
  ewald_rcut 3.0
  ewald_ncut 8

  # Simulation parameters
  #restricted    # DFT||ODFT||RESTRICTED||UNRESTRICTED
  xc pbe96
  cutoff 90.0
  loop 10 300
end
set nwpw:minimizer      2
set nwpw:lcao_skip      .true.
set nwpw:kbpp_ray       .true.

#       (110) gamma-uranium surface with surface displacements:	15.30%	and O displacement of	1.250	Å
geometry	center	noautosym	noautoz	print
	system	crystal
	lat_a	3.440
	lat_b	4.865
	lat_c	26.595
	alpha	90.0d0
	beta	90.0d0
	gamma	90.0d0
	end
	U1	0.00000	0.00000	0.66893
	U2	0.50000	0.50000	0.66893
	U3	0.00000	0.50000	0.59146
	U4	0.50000	0.00000	0.59146
	U5	0.00000	0.00000	0.50000
	U6	0.50000	0.50000	0.50000
	U7	0.00000	0.50000	0.42253
	U8	0.50000	0.00000	0.42253
	O1	0.00000	0.00000	0.71594
end
task band energy

#       (110) gamma-uranium surface with surface displacements:	15.30%	and O displacement of	1.500	Å
geometry	center	noautosym	noautoz	print
	system	crystal
	lat_a	3.440
	lat_b	4.865
	lat_c	26.595
	alpha	90.0d0
	beta	90.0d0
	gamma	90.0d0
	end
	U1	0.00000	0.00000	0.66893
	U2	0.50000	0.50000	0.66893
	U3	0.00000	0.50000	0.59146
	U4	0.50000	0.00000	0.59146
	U5	0.00000	0.00000	0.50000
	U6	0.50000	0.50000	0.50000
	U7	0.00000	0.50000	0.42253
	U8	0.50000	0.00000	0.42253
	O1	0.00000	0.00000	0.72534
end
task band energy

#       (110) gamma-uranium surface with surface displacements:	15.30%	and O displacement of	1.750	Å
geometry	center	noautosym	noautoz	print
	system	crystal
	lat_a	3.440
	lat_b	4.865
	lat_c	26.595
	alpha	90.0d0
	beta	90.0d0
	gamma	90.0d0
	end
	U1	0.00000	0.00000	0.66893
	U2	0.50000	0.50000	0.66893
	U3	0.00000	0.50000	0.59146
	U4	0.50000	0.00000	0.59146
	U5	0.00000	0.00000	0.50000
	U6	0.50000	0.50000	0.50000
	U7	0.00000	0.50000	0.42253
	U8	0.50000	0.00000	0.42253
	O1	0.00000	0.00000	0.73474
end
task band energy

#       (110) gamma-uranium surface with surface displacements:	15.30%	and O displacement of	2.000	Å
geometry	center	noautosym	noautoz	print
	system	crystal
	lat_a	3.440
	lat_b	4.865
	lat_c	26.595
	alpha	90.0d0
	beta	90.0d0
	gamma	90.0d0
	end
	U1	0.00000	0.00000	0.66893
	U2	0.50000	0.50000	0.66893
	U3	0.00000	0.50000	0.59146
	U4	0.50000	0.00000	0.59146
	U5	0.00000	0.00000	0.50000
	U6	0.50000	0.50000	0.50000
	U7	0.00000	0.50000	0.42253
	U8	0.50000	0.00000	0.42253
	O1	0.00000	0.00000	0.74414
end
task band energy

#       (110) gamma-uranium surface with surface displacements:	15.30%	and O displacement of	2.250	Å
geometry	center	noautosym	noautoz	print
	system	crystal
	lat_a	3.440
	lat_b	4.865
	lat_c	26.595
	alpha	90.0d0
	beta	90.0d0
	gamma	90.0d0
	end
	U1	0.00000	0.00000	0.66893
	U2	0.50000	0.50000	0.66893
	U3	0.00000	0.50000	0.59146
	U4	0.50000	0.00000	0.59146
	U5	0.00000	0.00000	0.50000
	U6	0.50000	0.50000	0.50000
	U7	0.00000	0.50000	0.42253
	U8	0.50000	0.00000	0.42253
	O1	0.00000	0.00000	0.75354
end
task band energy

# A.M.D.G.
================================================================================


                                         
                                         


             Northwest Computational Chemistry Package (NWChem) 6.1.1
             --------------------------------------------------------


                    Environmental Molecular Sciences Laboratory
                       Pacific Northwest National Laboratory
                                Richland, WA 99352

                              Copyright (c) 1994-2012
                       Pacific Northwest National Laboratory
                            Battelle Memorial Institute

             NWChem is an open-source computational chemistry package
                        distributed under the terms of the
                      Educational Community License (ECL) 2.0
             A copy of the license is included with this distribution
                              in the LICENSE.TXT file

                                  ACKNOWLEDGMENT
                                  --------------

            This software and its documentation were developed at the
            EMSL at Pacific Northwest National Laboratory, a multiprogram
            national laboratory, operated for the U.S. Department of Energy
            by Battelle under Contract Number DE-AC05-76RL01830. Support
            for this work was provided by the Department of Energy Office
            of Biological and Environmental Research, Office of Basic
            Energy Sciences, and the Office of Advanced Scientific Computing.


           Job information
           ---------------

    hostname        = taub510
    program         = /home/davis68/bin/nwchem-dev
    date            = Mon Mar 18 12:37:02 2013

    compiled        = Wed_Oct_03_09:41:00_2012
    source          = /home/davis68/nwchem/nwchem-src-2012-Aug-27/
    nwchem branch   = Development
    nwchem revision = 22805
    ga revision     = 10079
    input           = ./U8O-110-top.nw
    prefix          = U8O-110-top.
    data base       = ./perm/U8O-110-top.db
    status          = startup
    nproc           =      288
    time left       =     -1s



           Memory information
           ------------------

    heap     =   81920001 doubles =    625.0 Mbytes
    stack    =   81920001 doubles =    625.0 Mbytes
    global   =  163840000 doubles =   1250.0 Mbytes (distinct from heap & stack)
    total    =  327680002 doubles =   2500.0 Mbytes
    verify   = yes
    hardfail = no 


           Directory information
           ---------------------

  0 permanent = ./perm
  0 scratch   = ./scratch




                                NWChem Input Module
                                -------------------


                        Gamma-uranium (100) slab relaxation
                        -----------------------------------

  !!!!!!!!!  geom_3d NEEDS TESTING !!!!!!!!!! 


                             Geometry "geometry" -> ""
                             -------------------------

 Output coordinates in angstroms (scale by  1.889725989 to convert to a.u.)

  No.       Tag          Charge          X              Y              Z
 ---- ---------------- ---------- -------------- -------------- --------------
    1 U1                  92.0000     0.00000000     0.00000000    17.79019335
    2 U2                  92.0000     1.72000000     2.43250000    17.79019335
    3 U3                  92.0000     0.00000000     2.43250000    15.72987870
    4 U4                  92.0000     1.72000000     0.00000000    15.72987870
    5 U5                  92.0000     0.00000000     0.00000000    13.29750000
    6 U6                  92.0000     1.72000000     2.43250000    13.29750000
    7 U7                  92.0000     0.00000000     2.43250000    11.23718535
    8 U8                  92.0000     1.72000000     0.00000000    11.23718535
    9 O1                   8.0000     0.00000000     0.00000000    19.04042430

      Lattice Parameters 
      ------------------ 

      lattice vectors in angstroms (scale by  1.889725989 to convert to a.u.)

      a1=<   3.440   0.000   0.000 >
      a2=<   0.000   4.865   0.000 >
      a3=<   0.000   0.000  26.595 >
      a=       3.440 b=      4.865 c=      26.595
      alpha=  90.000 beta=  90.000 gamma=  90.000
      omega=   445.1

      reciprocal lattice vectors in a.u.

      b1=<   0.967   0.000  -0.000 >
      b2=<  -0.000   0.683  -0.000 >
      b3=<   0.000   0.000   0.125 >

      Atomic Mass 
      ----------- 

      U1               238.050800
      U2               238.050800
      U3               238.050800
      U4               238.050800
      U5               238.050800
      U6               238.050800
      U7               238.050800
      U8               238.050800
      O1                15.994910


 ==============================================================================
                                internuclear distances
 ------------------------------------------------------------------------------
       center one      |      center two      | atomic units |  angstroms
 ------------------------------------------------------------------------------
    2 U2               |   1 U1               |     5.62982  |     2.97917
    3 U3               |   1 U1               |     6.02403  |     3.18778
    3 U3               |   2 U2               |     5.07183  |     2.68390
    4 U4               |   1 U1               |     5.07183  |     2.68390
    4 U4               |   2 U2               |     6.02403  |     3.18778
    4 U4               |   3 U3               |     5.62982  |     2.97917
    5 U5               |   3 U3               |     6.50064  |     3.43999
    5 U5               |   4 U4               |     5.62963  |     2.97907
    6 U6               |   3 U3               |     5.62963  |     2.97907
    6 U6               |   4 U4               |     6.50064  |     3.43999
    6 U6               |   5 U5               |     5.62982  |     2.97917
    7 U7               |   5 U5               |     6.02403  |     3.18778
    7 U7               |   6 U6               |     5.07183  |     2.68390
    8 U8               |   5 U5               |     5.07183  |     2.68390
    8 U8               |   6 U6               |     6.02403  |     3.18778
    8 U8               |   7 U7               |     5.62982  |     2.97917
    9 O1               |   1 U1               |     2.36259  |     1.25023
 ------------------------------------------------------------------------------
                         number of included internuclear distances:         17
 ==============================================================================



 ==============================================================================
                                 internuclear angles
 ------------------------------------------------------------------------------
        center 1       |       center 2       |       center 3       |  degrees
 ------------------------------------------------------------------------------
    1 U1               |   2 U2               |   3 U3               |    68.28
    2 U2               |   1 U1               |   4 U4               |    68.28
    2 U2               |   1 U1               |   9 O1               |    90.00
    1 U1               |   4 U4               |   3 U3               |    68.28
    3 U3               |   1 U1               |   9 O1               |   130.26
    4 U4               |   1 U1               |   9 O1               |   140.14
    1 U1               |   2 U2               |   3 U3               |    68.28
    2 U2               |   1 U1               |   4 U4               |    68.28
    2 U2               |   3 U3               |   4 U4               |    68.28
    3 U3               |   2 U2               |   1 U1               |    68.28
    3 U3               |   4 U4               |   1 U1               |    68.28
    1 U1               |   3 U3               |   5 U5               |    85.26
    1 U1               |   3 U3               |   6 U6               |   121.85
    2 U2               |   3 U3               |   4 U4               |    68.28
    2 U2               |   3 U3               |   5 U5               |   122.87
    2 U2               |   3 U3               |   6 U6               |   104.88
    3 U3               |   4 U4               |   5 U5               |    70.53
    4 U4               |   3 U3               |   6 U6               |    70.53
    3 U3               |   6 U6               |   5 U5               |    70.53
    4 U4               |   1 U1               |   2 U2               |    68.28
    1 U1               |   4 U4               |   3 U3               |    68.28
    1 U1               |   4 U4               |   5 U5               |   104.88
    1 U1               |   4 U4               |   6 U6               |   122.87
    4 U4               |   3 U3               |   2 U2               |    68.28
    2 U2               |   4 U4               |   5 U5               |   121.85
    2 U2               |   4 U4               |   6 U6               |    85.26
    3 U3               |   4 U4               |   5 U5               |    70.53
    4 U4               |   3 U3               |   6 U6               |    70.53
    4 U4               |   5 U5               |   6 U6               |    70.53
    5 U5               |   4 U4               |   3 U3               |    70.53
    5 U5               |   6 U6               |   3 U3               |    70.53
    3 U3               |   5 U5               |   7 U7               |    85.26
    3 U3               |   5 U5               |   8 U8               |   122.87
    4 U4               |   5 U5               |   6 U6               |    70.53
    4 U4               |   5 U5               |   7 U7               |   121.85
    4 U4               |   5 U5               |   8 U8               |   104.88
    5 U5               |   6 U6               |   7 U7               |    68.28
    6 U6               |   5 U5               |   8 U8               |    68.28
    5 U5               |   8 U8               |   7 U7               |    68.28
    6 U6               |   3 U3               |   4 U4               |    70.53
    3 U3               |   6 U6               |   5 U5               |    70.53
    3 U3               |   6 U6               |   7 U7               |   104.88
    3 U3               |   6 U6               |   8 U8               |   121.85
    6 U6               |   5 U5               |   4 U4               |    70.53
    4 U4               |   6 U6               |   7 U7               |   122.87
    4 U4               |   6 U6               |   8 U8               |    85.26
    5 U5               |   6 U6               |   7 U7               |    68.28
    6 U6               |   5 U5               |   8 U8               |    68.28
    6 U6               |   7 U7               |   8 U8               |    68.28
    7 U7               |   6 U6               |   5 U5               |    68.28
    7 U7               |   8 U8               |   5 U5               |    68.28
    6 U6               |   7 U7               |   8 U8               |    68.28
    8 U8               |   5 U5               |   6 U6               |    68.28
    5 U5               |   8 U8               |   7 U7               |    68.28
    8 U8               |   7 U7               |   6 U6               |    68.28
 ------------------------------------------------------------------------------
                            number of included internuclear angles:         55
 ==============================================================================



          **********************************************************
          *                                                        *
          *                   NWPW BAND Calculation                *
          *                                                        *
          *  [(bundled Grassman/Stiefel manifold implementation)]  *
          *                                                        *
          *         [ NorthWest Chemistry implementation ]         *
          *                                                        *
          *                version #1.10   01/31/03                *
          *                                                        *
          *  A pseudopotential plane-wave band structure program   *
          *  with Brillouin zone sampling for optimizing crystals, *
          *  slabs, and polymers.  Developed by Eric J. Bylaska    *
          *  , Edoardo Apra, and Patrick Nichols.                  *
          *                                                        *
          **********************************************************
     >>>  JOB STARTED       AT Mon Mar 18 12:37:03 2013  <<<
          ================ input data ========================
  library name resolved from: environment
  NWCHEM_NWPW_LIBRARY set to: </home/davis68/nwchem/nwchem-6.1/src/nwpw/libraryps/>
 Generating 1d pseudopotential for U   

 Generated formatted_filename: ./perm/U.cpp
 - Spline fitted, nray=27864 -
  library name resolved from: environment
  NWCHEM_NWPW_LIBRARY set to: </home/davis68/nwchem/nwchem-6.1/src/nwpw/libraryps/>
 Generating 1d pseudopotential for O   

 Generated formatted_filename: ./perm/O.cpp
 - Spline fitted, nray=27864 -
 random planewave guess, initial psi:U8O-110-top.movecs                                
 -   spin, nalpha, nbeta:                    2                   60                   58

 input psi filename:./perm/U8O-110-top.movecs
Warning - Orthogonalization performed, spin,zone: 1   1
        - error(before)=  0.695771E+01 (  0.530423E+02)
        - error(after)=   0.710543E-14 (  0.600000E+02)
Warning - Orthogonalization performed, spin,zone: 2   1
        - error(before)=  0.672939E+01 (  0.512706E+02)
        - error(after)=   0.710543E-14 (  0.580000E+02)
Warning - Orthogonalization performed, spin,zone: 1   2
        - error(before)=  0.695946E+01 (  0.530405E+02)
        - error(after)=   0.000000E+00 (  0.600000E+02)
Warning - Orthogonalization performed, spin,zone: 2   2
        - error(before)=  0.673080E+01 (  0.512692E+02)
        - error(after)=   0.000000E+00 (  0.580000E+02)
Warning - Orthogonalization performed, spin,zone: 1   3
        - error(before)=  0.696050E+01 (  0.530395E+02)
        - error(after)=   0.000000E+00 (  0.600000E+02)
Warning - Orthogonalization performed, spin,zone: 2   3
        - error(before)=  0.672968E+01 (  0.512703E+02)
        - error(after)=   0.000000E+00 (  0.580000E+02)
Warning - Orthogonalization performed, spin,zone: 1   4
        - error(before)=  0.695899E+01 (  0.530410E+02)
        - error(after)=   0.710543E-14 (  0.600000E+02)
Warning - Orthogonalization performed, spin,zone: 2   4
        - error(before)=  0.672899E+01 (  0.512710E+02)
        - error(after)=   0.710543E-14 (  0.580000E+02)
Warning - Orthogonalization performed, spin,zone: 1   5
        - error(before)=  0.695828E+01 (  0.530417E+02)
        - error(after)=   0.142109E-13 (  0.600000E+02)
Warning - Orthogonalization performed, spin,zone: 2   5
        - error(before)=  0.672870E+01 (  0.512713E+02)
        - error(after)=   0.710543E-14 (  0.580000E+02)
Warning - Orthogonalization performed, spin,zone: 1   6
        - error(before)=  0.695861E+01 (  0.530414E+02)
        - error(after)=   0.710543E-14 (  0.600000E+02)
Warning - Orthogonalization performed, spin,zone: 2   6
        - error(before)=  0.673042E+01 (  0.512696E+02)
        - error(after)=   0.710543E-14 (  0.580000E+02)
Warning - Orthogonalization performed, spin,zone: 1   7
        - error(before)=  0.695939E+01 (  0.530406E+02)
        - error(after)=   0.142109E-13 (  0.600000E+02)
Warning - Orthogonalization performed, spin,zone: 2   7
        - error(before)=  0.672963E+01 (  0.512704E+02)
        - error(after)=   0.142109E-13 (  0.580000E+02)
Warning - Orthogonalization performed, spin,zone: 1   8
        - error(before)=  0.695530E+01 (  0.530447E+02)
        - error(after)=   0.000000E+00 (  0.600000E+02)
Warning - Orthogonalization performed, spin,zone: 2   8
        - error(before)=  0.672772E+01 (  0.512723E+02)
        - error(after)=   0.710543E-14 (  0.580000E+02)

 number of processors used:             288
 processor grid           :  36 x   1 x   8
 parallel mapping         :     2d  hilbert

 options:
      boundary conditions  = periodic    (version3)
      electron spin        = unrestricted
      exchange-correlation = PBE96 (White and Bird) parameterization

 elements involved in the cluster:
      1: U     core charge:14.0  lmax=3
             comment    : Parameterized (J.Chem. Phys. vol 128, 124507 (2008)) Troullier-Martins psp
             pseudpotential type            :   0
             highest angular component      :   3
             local potential used           :   0
             number of non-local projections:  15
             cutoff =   1.421   1.602   2.400   1.250
      2: O     core charge: 6.0  lmax=2
             comment    : Parameterized (Chem.Phys.Lett., vol 322, page 447) Hamman psp
             pseudpotential type            :   0
             highest angular component      :   2
             local potential used           :   2
             number of non-local projections:   4
             cutoff =   0.700   0.700   0.700

 total charge:   0.000

 atomic composition:
     U   :  8     O   :  1

 number of electrons: spin up=   60.00  spin down=   58.00 (fourier space)
 number of orbitals:  spin up=      60  spin down=      58 (fourier space)

 supercell:
      lattice:    a1=<   6.501   0.000   0.000 >
                  a2=<   0.000   9.194   0.000 >
                  a3=<   0.000   0.000  50.257 >
      reciprocal: b1=<   0.967   0.000  -0.000 >
                  b2=<  -0.000   0.683  -0.000 >
                  b3=<   0.000   0.000   0.125 >

      lattice:    a=   6.501    b=   9.194     c=  50.257
              alpha=  90.000 beta=  90.000 gamma=  90.000
      volume :     3003.6
      ewald summation: cut radius=    3.00  and  8
                        madelung=-3.45682194

 brillouin zone:
      number of zone points:     8
      weight=   0.125  ks=<   0.375   0.375   0.000 >, k=<   0.362   0.256  -0.000>
      weight=   0.125  ks=<   0.125   0.375   0.000 >, k=<   0.121   0.256  -0.000>
      weight=   0.125  ks=<  -0.125   0.375   0.000 >, k=<  -0.121   0.256  -0.000>
      weight=   0.125  ks=<   0.375  -0.375   0.000 >, k=<   0.362  -0.256  -0.000>
      weight=   0.125  ks=<   0.375   0.125   0.000 >, k=<   0.362   0.085  -0.000>
      weight=   0.125  ks=<   0.125   0.125   0.000 >, k=<   0.121   0.085  -0.000>
      weight=   0.125  ks=<   0.125  -0.125   0.000 >, k=<   0.121  -0.085  -0.000>
      weight=   0.125  ks=<   0.375  -0.125   0.000 >, k=<   0.362  -0.085  -0.000>

 computational grids:
      density     cutoff=134.521  fft=  36x  48x 360(   223609 waves     6211 per task)
      wavefnc   1 cutoff= 90.000  fft=  36x  48x 360(   122493 waves     3402 per task)
      wavefnc   2 cutoff= 90.000  fft=  36x  48x 360(   122404 waves     3400 per task)
      wavefnc   3 cutoff= 90.000  fft=  36x  48x 360(   122404 waves     3400 per task)
      wavefnc   4 cutoff= 90.000  fft=  36x  48x 360(   122493 waves     3402 per task)
      wavefnc   5 cutoff= 90.000  fft=  36x  48x 360(   122618 waves     3406 per task)
      wavefnc   6 cutoff= 90.000  fft=  36x  48x 360(   122427 waves     3400 per task)
      wavefnc   7 cutoff= 90.000  fft=  36x  48x 360(   122427 waves     3400 per task)
      wavefnc   8 cutoff= 90.000  fft=  36x  48x 360(   122618 waves     3406 per task)

 technical parameters:
      time step=      5.80     ficticious mass=  400000.0
      tolerance=.100E-06 (energy)   0.100E-06 (density)
      maximum iterations =      3000 (   10 inner    300 outer )



= energy calculation =


          ======== bundled Grassmann lmbfgs iteration ========
     >>>  ITERATION STARTED AT Mon Mar 18 12:41:37 2013  <<<
    iter.           Energy         DeltaE       DeltaRho 
    ------------------------------------------------------
     -  10 steepest descent iterations performed
      10   -0.3955280108E+03   -0.52026E+01    0.11421E+02
     -  10 steepest descent iterations performed
      20   -0.4200827314E+03   -0.52734E+00    0.17769E+00
     -  10 steepest descent iterations performed
      30   -0.4232346622E+03   -0.14550E+00    0.30020E-01
     -  10 steepest descent iterations performed
      40   -0.4243739767E+03   -0.72272E-01    0.13000E-01
     -  10 steepest descent iterations performed
      50   -0.4248956459E+03   -0.29253E-01    0.49934E-02
     -  10 steepest descent iterations performed
      60   -0.4251820476E+03   -0.18073E-01    0.20748E-02
     -  10 steepest descent iterations performed
      70   -0.4253567058E+03   -0.10434E-01    0.16345E-02
     -  10 steepest descent iterations performed
      80   -0.4254715348E+03   -0.75240E-02    0.78532E-03
      90   -0.4256406939E+03   -0.47073E-02    0.57232E-02
     100   -0.4256765029E+03   -0.43163E-02    0.50734E-03
     110   -0.4257297259E+03   -0.38794E-02    0.21375E-02
     120   -0.4257562236E+03   -0.15214E-02    0.83767E-03
     130   -0.4257802401E+03   -0.31861E-02    0.16129E-02
     -  10 steepest descent iterations performed
     140   -0.4258023503E+03   -0.10254E-02    0.23336E-03
     150   -0.4258223755E+03   -0.22803E-02    0.13025E-02
     -  10 steepest descent iterations performed
     160   -0.4258337969E+03   -0.68145E-03    0.30036E-03
     170   -0.4258428529E+03   -0.97070E-03    0.10186E-02
     -  10 steepest descent iterations performed
     180   -0.4258518954E+03   -0.44752E-03    0.26777E-03
     190   -0.4258578948E+03   -0.70108E-03    0.69657E-03
     -  10 steepest descent iterations performed
     200   -0.4258650103E+03   -0.44040E-03    0.29874E-03
     210   -0.4258696191E+03   -0.44835E-03    0.53451E-03
     -  10 steepest descent iterations performed
     220   -0.4258754064E+03   -0.30287E-03    0.22296E-03
     230   -0.4258788205E+03   -0.37000E-03    0.37116E-03
     -  10 steepest descent iterations performed
     240   -0.4258832690E+03   -0.28135E-03    0.19282E-03
     250   -0.4258859995E+03   -0.25625E-03    0.28955E-03
     260   -0.4258977195E+03   -0.40886E-03    0.58596E-02
     -  10 steepest descent iterations performed
     270   -0.4259021942E+03   -0.35730E-03    0.11431E-03
     280   -0.4259037116E+03   -0.21004E-03    0.11663E-03
     290   -0.4259065439E+03   -0.18940E-03    0.57311E-03
     300   -0.4259099040E+03   -0.31544E-03    0.10727E-02
     -  10 steepest descent iterations performed
     310   -0.4259127332E+03   -0.23083E-03    0.97484E-04
     320   -0.4259146944E+03   -0.13489E-03    0.15980E-03
     330   -0.4259165572E+03   -0.14694E-03    0.30511E-03
     -  10 steepest descent iterations performed
     340   -0.4259184299E+03   -0.19438E-03    0.87478E-04
     -  10 steepest descent iterations performed
     350   -0.4259194982E+03   -0.52866E-04    0.37590E-04
     360   -0.4259231334E+03   -0.39789E-03    0.22732E-02
     -  10 steepest descent iterations performed
     370   -0.4259258171E+03   -0.91815E-04    0.27552E-04
     380   -0.4259267225E+03   -0.13801E-03    0.78333E-04
     -  10 steepest descent iterations performed
     390   -0.4259276324E+03   -0.46981E-04    0.25903E-04
     400   -0.4259290016E+03   -0.14643E-03    0.44009E-03
     -  10 steepest descent iterations performed
     410   -0.4259304980E+03   -0.57490E-04    0.24606E-04
     420   -0.4259310403E+03   -0.76690E-04    0.58786E-04
     -  10 steepest descent iterations performed
     430   -0.4259318025E+03   -0.44744E-04    0.26227E-04
     440   -0.4259328606E+03   -0.98332E-04    0.31373E-03
     -  10 steepest descent iterations performed
     450   -0.4259340819E+03   -0.49980E-04    0.23092E-04
     460   -0.4259345304E+03   -0.56447E-04    0.47568E-04
     -  10 steepest descent iterations performed
     470   -0.4259351868E+03   -0.41439E-04    0.25686E-04
     480   -0.4259360669E+03   -0.77696E-04    0.25645E-03
     -  10 steepest descent iterations performed
     490   -0.4259371093E+03   -0.43935E-04    0.21455E-04
     500   -0.4259374955E+03   -0.45837E-04    0.40807E-04
     -  10 steepest descent iterations performed
     510   -0.4259380750E+03   -0.37833E-04    0.24637E-04
     520   -0.4259388202E+03   -0.63183E-04    0.20821E-03
     -  10 steepest descent iterations performed
     530   -0.4259397129E+03   -0.38508E-04    0.18625E-04
     540   -0.4259400385E+03   -0.37289E-04    0.31735E-04
     550   -0.4259424794E+03   -0.11793E-03    0.19235E-02
     -  10 steepest descent iterations performed
     560   -0.4259434392E+03   -0.17781E-04    0.10225E-04
     570   -0.4259436101E+03   -0.21486E-04    0.78945E-05
     -  10 steepest descent iterations performed
     580   -0.4259438543E+03   -0.35605E-04    0.16773E-04
     -  10 steepest descent iterations performed
     590   -0.4259440497E+03   -0.14041E-04    0.77292E-05
     600   -0.4259444813E+03   -0.32175E-04    0.17171E-03
     -  10 steepest descent iterations performed
     610   -0.4259448944E+03   -0.12659E-04    0.50372E-05
     620   -0.4259449757E+03   -0.99921E-05    0.48731E-05
     630   -0.4259455509E+03   -0.79117E-04    0.49521E-03
     -  10 steepest descent iterations performed
     640   -0.4259460137E+03   -0.71866E-05    0.61903E-05
     650   -0.4259460831E+03   -0.69654E-05    0.39501E-05
     660   -0.4259462326E+03   -0.18222E-04    0.44023E-04
     -  10 steepest descent iterations performed
     670   -0.4259463907E+03   -0.95954E-05    0.35820E-05
     680   -0.4259464655E+03   -0.10763E-04    0.89630E-05
     -  10 steepest descent iterations performed